*SPEF "ieee 1481-1999"
*DESIGN "alu_8bit"
*DATE "04:42:14 Saturday September 26, 2026"
*VENDOR "The OpenROAD Project"
*PROGRAM "OpenROAD"
*VERSION "dcf36133a369abc8f3c5e5738cd4d82e4903c0e0"
*DESIGN_FLOW "NAME_SCOPE LOCAL" "PIN_CAP NONE"
*DIVIDER /
*DELIMITER :
*BUS_DELIMITER []
*T_UNIT 1 NS
*C_UNIT 1 PF
*R_UNIT 1 OHM
*L_UNIT 1 HENRY

*NAME_MAP
*3 a[0]
*4 a[1]
*5 a[2]
*6 a[3]
*7 a[4]
*8 a[5]
*9 a[6]
*10 a[7]
*11 b[0]
*12 b[1]
*13 b[2]
*14 b[3]
*15 b[4]
*16 b[5]
*17 b[6]
*18 b[7]
*19 opcode[0]
*20 opcode[1]
*21 opcode[2]
*22 overflow
*23 result[0]
*24 result[1]
*25 result[2]
*26 result[3]
*27 result[4]
*28 result[5]
*29 result[6]
*30 result[7]
*31 zero
*32 _000_
*33 _001_
*34 _002_
*35 _003_
*36 _004_
*37 _005_
*38 _006_
*39 _007_
*40 _008_
*41 _009_
*42 _010_
*43 _011_
*44 _012_
*45 _013_
*46 _014_
*47 _015_
*48 _016_
*49 _017_
*50 _018_
*51 _019_
*52 _020_
*53 _021_
*54 _022_
*55 _023_
*56 _024_
*57 _025_
*58 _026_
*59 _027_
*60 _028_
*61 _029_
*62 _030_
*63 _031_
*64 _032_
*65 _033_
*66 _034_
*67 _035_
*68 _036_
*69 _037_
*70 _038_
*71 _039_
*72 _040_
*73 _041_
*74 _042_
*75 _043_
*76 _044_
*77 _045_
*78 _046_
*79 _047_
*80 _048_
*81 _049_
*82 _050_
*83 _051_
*84 _052_
*85 _053_
*86 _054_
*87 _055_
*88 _056_
*89 _057_
*90 _058_
*91 _059_
*92 _060_
*93 _061_
*94 _062_
*95 _063_
*96 _064_
*97 _065_
*98 _066_
*99 _067_
*100 _068_
*101 _069_
*102 _070_
*103 _071_
*104 _072_
*105 _073_
*106 _074_
*107 _075_
*108 _076_
*109 _077_
*110 _078_
*111 _079_
*112 _080_
*113 _081_
*114 _082_
*115 _083_
*116 _084_
*117 _085_
*118 _086_
*119 _087_
*120 _088_
*121 _089_
*122 _090_
*123 _091_
*124 net1
*125 net10
*126 net11
*127 net12
*128 net13
*129 net14
*130 net15
*131 net16
*132 net17
*133 net18
*134 net19
*135 net2
*136 net20
*137 net21
*138 net22
*139 net23
*140 net24
*141 net25
*142 net26
*143 net27
*144 net28
*145 net29
*146 net3
*147 net30
*148 net31
*149 net32
*150 net33
*151 net34
*152 net35
*153 net36
*154 net37
*155 net38
*156 net39
*157 net4
*158 net5
*159 net6
*160 net7
*161 net8
*162 net9
*163 FILLER_0_29
*164 FILLER_0_32
*165 FILLER_0_62
*166 FILLER_0_65
*167 FILLER_0_68
*168 FILLER_0_71
*169 FILLER_0_74
*170 FILLER_0_77
*171 FILLER_0_80
*172 FILLER_0_83
*173 FILLER_0_85
*174 FILLER_0_88
*175 FILLER_10_12
*176 FILLER_10_25
*177 FILLER_10_36
*178 FILLER_10_55
*179 FILLER_10_58
*180 FILLER_10_90
*181 FILLER_11_15
*182 FILLER_11_43
*183 FILLER_11_46
*184 FILLER_11_50
*185 FILLER_11_53
*186 FILLER_11_67
*187 FILLER_12_27
*188 FILLER_12_47
*189 FILLER_12_53
*190 FILLER_12_56
*191 FILLER_12_59
*192 FILLER_12_62
*193 FILLER_12_65
*194 FILLER_12_80
*195 FILLER_12_83
*196 FILLER_12_85
*197 FILLER_12_88
*198 FILLER_13_28
*199 FILLER_13_43
*200 FILLER_13_55
*201 FILLER_13_64
*202 FILLER_13_84
*203 FILLER_13_87
*204 FILLER_13_90
*205 FILLER_14_24
*206 FILLER_14_27
*207 FILLER_14_29
*208 FILLER_14_59
*209 FILLER_14_62
*210 FILLER_14_81
*211 FILLER_14_85
*212 FILLER_14_88
*213 FILLER_15_21
*214 FILLER_15_24
*215 FILLER_15_27
*216 FILLER_15_29
*217 FILLER_15_50
*218 FILLER_15_53
*219 FILLER_15_65
*220 FILLER_15_68
*221 FILLER_15_77
*222 FILLER_15_80
*223 FILLER_15_83
*224 FILLER_15_85
*225 FILLER_15_88
*226 FILLER_1_24
*227 FILLER_1_27
*228 FILLER_1_57
*229 FILLER_1_66
*230 FILLER_1_69
*231 FILLER_1_72
*232 FILLER_1_88
*233 FILLER_2_11
*234 FILLER_2_27
*235 FILLER_2_64
*236 FILLER_2_82
*237 FILLER_2_85
*238 FILLER_2_88
*239 FILLER_3_12
*240 FILLER_3_24
*241 FILLER_3_27
*242 FILLER_3_3
*243 FILLER_3_71
*244 FILLER_3_82
*245 FILLER_4_26
*246 FILLER_4_42
*247 FILLER_4_47
*248 FILLER_4_50
*249 FILLER_4_53
*250 FILLER_4_56
*251 FILLER_4_65
*252 FILLER_4_85
*253 FILLER_4_88
*254 FILLER_5_26
*255 FILLER_5_35
*256 FILLER_5_38
*257 FILLER_5_41
*258 FILLER_5_53
*259 FILLER_5_81
*260 FILLER_6_29
*261 FILLER_6_3
*262 FILLER_6_44
*263 FILLER_6_47
*264 FILLER_6_59
*265 FILLER_6_62
*266 FILLER_6_85
*267 FILLER_6_88
*268 FILLER_7_49
*269 FILLER_7_52
*270 FILLER_7_55
*271 FILLER_7_67
*272 FILLER_8_36
*273 FILLER_8_42
*274 FILLER_8_48
*275 FILLER_8_68
*276 FILLER_8_71
*277 FILLER_8_81
*278 FILLER_8_85
*279 FILLER_8_88
*280 FILLER_9_12
*281 FILLER_9_26
*282 FILLER_9_43
*283 FILLER_9_51
*284 FILLER_9_54
*285 FILLER_9_57
*286 FILLER_9_73
*287 FILLER_9_85
*288 FILLER_9_88
*289 PHY_EDGE_ROW_0_Left_16
*290 PHY_EDGE_ROW_0_Right_0
*291 PHY_EDGE_ROW_10_Left_26
*292 PHY_EDGE_ROW_10_Right_10
*293 PHY_EDGE_ROW_11_Left_27
*294 PHY_EDGE_ROW_11_Right_11
*295 PHY_EDGE_ROW_12_Left_28
*296 PHY_EDGE_ROW_12_Right_12
*297 PHY_EDGE_ROW_13_Left_29
*298 PHY_EDGE_ROW_13_Right_13
*299 PHY_EDGE_ROW_14_Left_30
*300 PHY_EDGE_ROW_14_Right_14
*301 PHY_EDGE_ROW_15_Left_31
*302 PHY_EDGE_ROW_15_Right_15
*303 PHY_EDGE_ROW_1_Left_17
*304 PHY_EDGE_ROW_1_Right_1
*305 PHY_EDGE_ROW_2_Left_18
*306 PHY_EDGE_ROW_2_Right_2
*307 PHY_EDGE_ROW_3_Left_19
*308 PHY_EDGE_ROW_3_Right_3
*309 PHY_EDGE_ROW_4_Left_20
*310 PHY_EDGE_ROW_4_Right_4
*311 PHY_EDGE_ROW_5_Left_21
*312 PHY_EDGE_ROW_5_Right_5
*313 PHY_EDGE_ROW_6_Left_22
*314 PHY_EDGE_ROW_6_Right_6
*315 PHY_EDGE_ROW_7_Left_23
*316 PHY_EDGE_ROW_7_Right_7
*317 PHY_EDGE_ROW_8_Left_24
*318 PHY_EDGE_ROW_8_Right_8
*319 PHY_EDGE_ROW_9_Left_25
*320 PHY_EDGE_ROW_9_Right_9
*321 TAP_TAPCELL_ROW_0_32
*322 TAP_TAPCELL_ROW_0_33
*323 TAP_TAPCELL_ROW_0_34
*324 TAP_TAPCELL_ROW_10_48
*325 TAP_TAPCELL_ROW_10_49
*326 TAP_TAPCELL_ROW_11_50
*327 TAP_TAPCELL_ROW_12_51
*328 TAP_TAPCELL_ROW_12_52
*329 TAP_TAPCELL_ROW_13_53
*330 TAP_TAPCELL_ROW_14_54
*331 TAP_TAPCELL_ROW_14_55
*332 TAP_TAPCELL_ROW_15_56
*333 TAP_TAPCELL_ROW_15_57
*334 TAP_TAPCELL_ROW_15_58
*335 TAP_TAPCELL_ROW_1_35
*336 TAP_TAPCELL_ROW_2_36
*337 TAP_TAPCELL_ROW_2_37
*338 TAP_TAPCELL_ROW_3_38
*339 TAP_TAPCELL_ROW_4_39
*340 TAP_TAPCELL_ROW_4_40
*341 TAP_TAPCELL_ROW_5_41
*342 TAP_TAPCELL_ROW_6_42
*343 TAP_TAPCELL_ROW_6_43
*344 TAP_TAPCELL_ROW_7_44
*345 TAP_TAPCELL_ROW_8_45
*346 TAP_TAPCELL_ROW_8_46
*347 TAP_TAPCELL_ROW_9_47
*348 _092_
*349 _093_
*350 _094_
*351 _095_
*352 _096_
*353 _097_
*354 _098_
*355 _099_
*356 _100_
*357 _101_
*358 _102_
*359 _103_
*360 _104_
*361 _105_
*362 _106_
*363 _107_
*364 _108_
*365 _109_
*366 _110_
*367 _111_
*368 _112_
*369 _113_
*370 _114_
*371 _115_
*372 _116_
*373 _117_
*374 _118_
*375 _119_
*376 _120_
*377 _121_
*378 _122_
*379 _123_
*380 _124_
*381 _125_
*382 _126_
*383 _127_
*384 _128_
*385 _129_
*386 _130_
*387 _131_
*388 _132_
*389 _133_
*390 _134_
*391 _135_
*392 _136_
*393 _137_
*394 _138_
*395 _139_
*396 _140_
*397 _141_
*398 _142_
*399 _143_
*400 _144_
*401 _145_
*402 _146_
*403 _147_
*404 _148_
*405 _149_
*406 _150_
*407 _151_
*408 _152_
*409 _153_
*410 _154_
*411 _155_
*412 _156_
*413 _157_
*414 _158_
*415 _159_
*416 _160_
*417 _161_
*418 _162_
*419 _163_
*420 _164_
*421 _165_
*422 _166_
*423 _167_
*424 _168_
*425 _169_
*426 _170_
*427 _171_
*428 _172_
*429 _173_
*430 _174_
*431 _175_
*432 _176_
*433 _177_
*434 _178_
*435 _179_
*436 _180_
*437 _181_
*438 _182_
*439 _183_
*440 _184_
*441 _185_
*442 _186_
*443 _187_
*444 _188_
*445 _189_
*446 _190_
*447 _191_
*448 _192_
*449 _193_
*450 fanout31
*451 fanout32
*452 input1
*453 input10
*454 input11
*455 input12
*456 input13
*457 input14
*458 input15
*459 input16
*460 input17
*461 input18
*462 input19
*463 input2
*464 input3
*465 input4
*466 input5
*467 input6
*468 input7
*469 input8
*470 input9
*471 max_cap30
*472 output20
*473 output21
*474 output22
*475 output23
*476 output24
*477 output25
*478 output26
*479 output27
*480 output28
*481 output29
*482 rebuffer33
*483 rebuffer34
*484 rebuffer35
*485 rebuffer36
*486 rebuffer37
*487 rebuffer38
*488 rebuffer39

*PORTS
a[0] I
a[1] I
a[2] I
a[3] I
a[4] I
a[5] I
a[6] I
a[7] I
b[0] I
b[1] I
b[2] I
b[3] I
b[4] I
b[5] I
b[6] I
b[7] I
opcode[0] I
opcode[1] I
opcode[2] I
overflow O
result[0] O
result[1] O
result[2] O
result[3] O
result[4] O
result[5] O
result[6] O
result[7] O
zero O

*D_NET *3 0.00143062
*CONN
*P a[0] I
*I *452:A I *D sky130_fd_sc_hd__clkdlybuf4s25_1
*CAP
1 a[0] 0.000468262
2 *452:A 0
3 *3:13 0.000468262
4 *3:13 *462:A 3.75236e-05
5 *3:13 *11:13 0.000152587
6 *3:13 *19:13 0.000156329
7 *3:13 *23:10 0.000147656
*RES
1 a[0] *3:13 32.5098 
2 *3:13 *452:A 23 
*END

*D_NET *4 0.00100294
*CONN
*P a[1] I
*I *463:A I *D sky130_fd_sc_hd__clkdlybuf4s25_1
*CAP
1 a[1] 0.00046285
2 *463:A 0
3 *4:13 0.00046285
4 *4:13 result[1] 0
5 *4:13 *12:13 7.72405e-05
*RES
1 a[1] *4:13 30.8259 
2 *4:13 *463:A 23 
*END

*D_NET *5 0.0013831
*CONN
*P a[2] I
*I *464:A I *D sky130_fd_sc_hd__clkdlybuf4s25_1
*CAP
1 a[2] 0.00056748
2 *464:A 0
3 *5:9 0.00056748
4 *5:9 result[2] 0
5 *5:9 *13:17 1.17182e-05
6 *5:9 *25:10 0.000232706
7 *5:9 *146:10 3.7122e-06
*RES
1 a[2] *5:9 28.5264 
2 *5:9 *464:A 23 
*END

*D_NET *6 0.00284277
*CONN
*P a[3] I
*I *465:A I *D sky130_fd_sc_hd__clkdlybuf4s25_1
*CAP
1 a[3] 0.000700337
2 *465:A 0
3 *6:11 0.000700337
4 *6:11 result[3] 0.000409973
5 *6:11 *421:B1 6.02561e-05
6 *6:11 *455:A 0.000778136
7 *6:11 *456:A 0
8 *6:11 *35:10 0.000193734
*RES
1 a[3] *6:11 28.7895 
2 *6:11 *465:A 23 
*END

*D_NET *7 0.00210707
*CONN
*P a[4] I
*I *466:A I *D sky130_fd_sc_hd__clkdlybuf4s25_1
*CAP
1 a[4] 0.000435645
2 *466:A 0
3 *7:11 0.000435645
4 *7:11 result[4] 0.000391782
5 *7:11 result[5] 6.10274e-05
6 *7:11 *456:A 0.00051941
7 *7:11 *27:8 0
8 *7:11 *103:56 0.000263565
*RES
1 a[4] *7:11 28.4634 
2 *7:11 *466:A 23 
*END

*D_NET *8 0.00137434
*CONN
*P a[5] I
*I *467:A I *D sky130_fd_sc_hd__clkdlybuf4s25_1
*CAP
1 a[5] 0.00054333
2 *467:A 0
3 *8:11 0.00054333
4 *8:11 result[5] 0.000221311
5 *8:11 *28:10 0
6 *8:11 *75:10 6.63698e-05
7 *8:11 *103:50 0
*RES
1 a[5] *8:11 29.9752 
2 *8:11 *467:A 23 
*END

*D_NET *9 0.00172387
*CONN
*P a[6] I
*I *468:A I *D sky130_fd_sc_hd__clkdlybuf4s25_1
*CAP
1 a[6] 0.000717584
2 *468:A 0
3 *9:9 0.000717584
4 *9:9 result[6] 0
5 *9:9 *29:12 0.000155027
6 *9:9 *133:16 7.88828e-05
7 *9:9 *160:10 5.47927e-05
*RES
1 a[6] *9:9 31.9546 
2 *9:9 *468:A 23 
*END

*D_NET *10 0.00141905
*CONN
*P a[7] I
*I *469:A I *D sky130_fd_sc_hd__clkdlybuf4s25_1
*CAP
1 a[7] 0.000235794
2 *469:A 0.000235794
3 *469:A *18:11 0.000389156
4 *469:A *20:11 0.00055831
*RES
1 a[7] *469:A 49.7369 
*END

*D_NET *11 0.00149132
*CONN
*P b[0] I
*I *470:A I *D sky130_fd_sc_hd__clkdlybuf4s25_1
*CAP
1 b[0] 0.000609667
2 *470:A 0
3 *11:13 0.000609667
4 *11:13 *462:A 7.87199e-05
5 *11:13 *24:10 4.06849e-05
6 *3:13 *11:13 0.000152587
*RES
1 b[0] *11:13 35.4422 
2 *11:13 *470:A 23 
*END

*D_NET *12 0.00109404
*CONN
*P b[1] I
*I *453:A I *D sky130_fd_sc_hd__clkdlybuf4s25_1
*CAP
1 b[1] 0.000508398
2 *453:A 0
3 *12:13 0.000508398
4 *4:13 *12:13 7.72405e-05
*RES
1 b[1] *12:13 32.6635 
2 *12:13 *453:A 23 
*END

*D_NET *13 0.00146132
*CONN
*P b[2] I
*I *454:A I *D sky130_fd_sc_hd__clkdlybuf4s25_1
*CAP
1 b[2] 0.000724802
2 *454:A 0
3 *13:17 0.000724802
4 *5:9 *13:17 1.17182e-05
*RES
1 b[2] *13:17 30.95 
2 *13:17 *454:A 23 
*END

*D_NET *14 0.00237258
*CONN
*P b[3] I
*I *455:A I *D sky130_fd_sc_hd__clkdlybuf4s25_1
*CAP
1 b[3] 0.000779741
2 *455:A 0.000779741
3 *455:A *90:12 3.49583e-05
4 *455:A *92:12 0
5 *6:11 *455:A 0.000778136
*RES
1 b[3] *455:A 49.8571 
*END

*D_NET *15 0.00213704
*CONN
*P b[4] I
*I *456:A I *D sky130_fd_sc_hd__clkdlybuf4s25_1
*CAP
1 b[4] 0.000709
2 *456:A 0.000709
3 *456:A result[3] 0
4 *456:A *39:10 0.00010099
5 *456:A *140:16 9.86446e-05
6 *6:11 *456:A 0
7 *7:11 *456:A 0.00051941
*RES
1 b[4] *456:A 49.8658 
*END

*D_NET *16 0.00123097
*CONN
*P b[5] I
*I *457:A I *D sky130_fd_sc_hd__clkdlybuf4s25_1
*CAP
1 b[5] 0.000603969
2 *457:A 0
3 *16:9 0.000603969
4 *16:9 *129:10 2.30292e-05
*RES
1 b[5] *16:9 28.1432 
2 *16:9 *457:A 23 
*END

*D_NET *17 0.00123792
*CONN
*P b[6] I
*I *458:A I *D sky130_fd_sc_hd__clkdlybuf4s25_1
*CAP
1 b[6] 0.000602816
2 *458:A 0
3 *17:9 0.000602816
4 *17:9 result[6] 0
5 *17:9 *29:12 0
6 *17:9 *133:16 3.22879e-05
*RES
1 b[6] *17:9 28.1432 
2 *17:9 *458:A 23 
*END

*D_NET *18 0.00397857
*CONN
*P b[7] I
*I *459:A I *D sky130_fd_sc_hd__clkdlybuf4s25_1
*CAP
1 b[7] 0.00114231
2 *459:A 0
3 *18:11 0.00114231
4 *18:11 *399:A 6.93553e-05
5 *18:11 *20:11 1.10188e-05
6 *18:11 *63:92 8.03985e-05
7 *18:11 *70:14 0
8 *18:11 *95:8 1.95685e-05
9 *18:11 *101:10 0
10 *18:11 *104:10 0.000166513
11 *18:11 *106:10 8.85189e-05
12 *18:11 *107:12 0.000616965
13 *18:11 *107:27 0
14 *18:11 *109:10 0
15 *18:11 *110:10 9.03122e-06
16 *18:11 *161:8 5.93891e-05
17 *18:11 *161:16 0.000143265
18 *18:11 *161:27 4.07715e-05
19 *469:A *18:11 0.000389156
*RES
1 b[7] *18:11 41.2432 
2 *18:11 *459:A 23 
*END

*D_NET *19 0.00225539
*CONN
*P opcode[0] I
*I *460:A I *D sky130_fd_sc_hd__clkbuf_2
*CAP
1 opcode[0] 0.000759411
2 *460:A 0
3 *19:13 0.000759411
4 *19:13 zero 0
5 *19:13 *407:A2 0.000149886
6 *19:13 *407:A3 9.06073e-05
7 *19:13 *462:A 0
8 *19:13 *63:92 5.82853e-05
9 *19:13 *114:8 0
10 *19:13 *134:8 0.000271592
11 *19:13 *137:10 9.86777e-06
12 *19:13 *148:16 0
13 *19:13 *151:14 0
14 *3:13 *19:13 0.000156329
*RES
1 opcode[0] *19:13 36.4368 
2 *19:13 *460:A 23 
*END

*D_NET *20 0.0018387
*CONN
*P opcode[1] I
*I *461:A I *D sky130_fd_sc_hd__buf_6
*CAP
1 opcode[1] 0.000507475
2 *461:A 0
3 *20:11 0.000507475
4 *20:11 overflow 0
5 *20:11 *148:10 0.00025442
6 *469:A *20:11 0.00055831
7 *18:11 *20:11 1.10188e-05
*RES
1 opcode[1] *20:11 31.4006 
2 *20:11 *461:A 23 
*END

*D_NET *21 0.00253035
*CONN
*P opcode[2] I
*I *462:A I *D sky130_fd_sc_hd__clkbuf_2
*CAP
1 opcode[2] 0.000993354
2 *462:A 0.000993354
3 *462:A result[0] 0.00029896
4 *462:A result[1] 7.24203e-06
5 *462:A *372:B 0
6 *462:A *105:24 2.7781e-05
7 *462:A *105:43 4.67055e-05
8 *462:A *115:8 4.67055e-05
9 *3:13 *462:A 3.75236e-05
10 *11:13 *462:A 7.87199e-05
11 *19:13 *462:A 0
*RES
1 opcode[2] *462:A 49.4359 
*END

*D_NET *22 0.00153793
*CONN
*P overflow O
*I *472:X O *D sky130_fd_sc_hd__buf_8
*CAP
1 overflow 0.000429606
2 *472:X 5.21562e-05
3 *22:10 0.000481762
4 overflow result[7] 0.000208068
5 *22:10 *148:16 0.000183171
6 *22:10 *151:12 0.000183171
7 *20:11 overflow 0
*RES
1 *472:X *22:10 48.4339 
2 *22:10 overflow 1.6464 
*END

*D_NET *23 0.00170089
*CONN
*P result[0] O
*I *473:X O *D sky130_fd_sc_hd__clkdlybuf4s25_1
*CAP
1 result[0] 0.000126967
2 *473:X 0.000306402
3 *23:10 0.000433369
4 result[0] result[1] 0.000300228
5 *23:10 *124:10 5.58003e-05
6 *23:10 *151:33 3.1504e-05
7 *462:A result[0] 0.00029896
8 *3:13 *23:10 0.000147656
*RES
1 *473:X *23:10 43.7068 
2 *23:10 result[0] 9.04533 
*END

*D_NET *24 0.00180476
*CONN
*P result[1] O
*I *474:X O *D sky130_fd_sc_hd__clkdlybuf4s25_1
*CAP
1 result[1] 0.000262861
2 *474:X 0.000437934
3 *24:10 0.000700795
4 *24:10 *410:C1 0
5 *24:10 *162:6 5.50106e-05
6 result[0] result[1] 0.000300228
7 *462:A result[1] 7.24203e-06
8 *4:13 result[1] 0
9 *11:13 *24:10 4.06849e-05
*RES
1 *474:X *24:10 43.9346 
2 *24:10 result[1] 9.1312 
*END

*D_NET *25 0.00211998
*CONN
*P result[2] O
*I *475:X O *D sky130_fd_sc_hd__clkdlybuf4s25_1
*CAP
1 result[2] 0.000463511
2 *475:X 0.00039798
3 *25:10 0.000861491
4 *25:10 *88:12 0.000164291
5 *5:9 result[2] 0
6 *5:9 *25:10 0.000232706
*RES
1 *475:X *25:10 47.3421 
2 *25:10 result[2] 39.7979 
*END

*D_NET *26 0.00148091
*CONN
*P result[3] O
*I *476:X O *D sky130_fd_sc_hd__clkdlybuf4s25_1
*CAP
1 result[3] 0.000262737
2 *476:X 0.000272732
3 *26:8 0.000535469
4 *26:8 *366:B 0
5 *26:8 *127:21 0
6 *456:A result[3] 0
7 *6:11 result[3] 0.000409973
*RES
1 *476:X *26:8 42.5468 
2 *26:8 result[3] 9.372 
*END

*D_NET *27 0.00184428
*CONN
*P result[4] O
*I *477:X O *D sky130_fd_sc_hd__clkdlybuf4s25_1
*CAP
1 result[4] 0.0001593
2 *477:X 0.000375746
3 *27:8 0.000535046
4 result[4] result[5] 0.000382403
5 *7:11 result[4] 0.000391782
6 *7:11 *27:8 0
*RES
1 *477:X *27:8 44.6596 
2 *27:8 result[4] 9.372 
*END

*D_NET *28 0.00268916
*CONN
*P result[5] O
*I *478:X O *D sky130_fd_sc_hd__dlymetal6s2s_1
*CAP
1 result[5] 0.000293695
2 *478:X 0.000409291
3 *28:10 0.000702986
4 *28:10 *365:A 0.000305425
5 *28:10 *432:A3 5.41288e-05
6 *28:10 *75:10 2.76611e-06
7 *28:10 *76:53 0.000114074
8 *28:10 *103:50 3.47879e-05
9 *28:10 *103:56 0.000107267
10 result[4] result[5] 0.000382403
11 *7:11 result[5] 6.10274e-05
12 *8:11 result[5] 0.000221311
13 *8:11 *28:10 0
*RES
1 *478:X *28:10 46.7311 
2 *28:10 result[5] 9.8872 
*END

*D_NET *29 0.00137939
*CONN
*P result[6] O
*I *479:X O *D sky130_fd_sc_hd__dlymetal6s2s_1
*CAP
1 result[6] 0.000291596
2 *479:X 0.000292138
3 *29:12 0.000583734
4 *29:12 *133:16 5.68958e-05
5 *9:9 result[6] 0
6 *9:9 *29:12 0.000155027
7 *17:9 result[6] 0
8 *17:9 *29:12 0
*RES
1 *479:X *29:12 45.6746 
2 *29:12 result[6] 6.71143 
*END

*D_NET *30 0.00111272
*CONN
*P result[7] O
*I *480:X O *D sky130_fd_sc_hd__buf_6
*CAP
1 result[7] 6.80492e-05
2 *480:X 0.00026987
3 *30:10 0.000337919
4 result[7] zero 0.000211457
5 *30:10 *31:10 1.73575e-05
6 *30:10 *136:8 0
7 overflow result[7] 0.000208068
*RES
1 *480:X *30:10 42.6296 
2 *30:10 result[7] 8.70187 
*END

*D_NET *31 0.000978227
*CONN
*P zero O
*I *481:X O *D sky130_fd_sc_hd__buf_6
*CAP
1 zero 0.000122363
2 *481:X 0.000252344
3 *31:10 0.000374707
4 result[7] zero 0.000211457
5 *19:13 zero 0
6 *30:10 *31:10 1.73575e-05
*RES
1 *481:X *31:10 42.2775 
2 *31:10 zero 8.70187 
*END

*D_NET *32 0.00105964
*CONN
*I *419:A2 I *D sky130_fd_sc_hd__a21oi_2
*I *420:C I *D sky130_fd_sc_hd__or3_2
*I *418:Y O *D sky130_fd_sc_hd__a21oi_2
*CAP
1 *419:A2 0.000176228
2 *420:C 5.25533e-05
3 *418:Y 0.000187555
4 *32:10 0.000416336
5 *419:A2 *63:12 0
6 *419:A2 *91:21 2.76611e-06
7 *419:A2 *92:12 0
8 *420:C *100:78 3.71369e-05
9 *32:10 *423:B1 0.000143655
10 *32:10 *63:12 0
11 *32:10 *91:21 4.3407e-05
*RES
1 *418:Y *32:10 41.48 
2 *32:10 *420:C 39.0979 
3 *32:10 *419:A2 40.9621 
*END

*D_NET *33 0.00100314
*CONN
*I *422:B1 I *D sky130_fd_sc_hd__o221a_2
*I *419:Y O *D sky130_fd_sc_hd__a21oi_2
*CAP
1 *422:B1 0
2 *419:Y 0.00018923
3 *33:10 0.00018923
4 *33:10 *103:56 0.000173124
5 *33:10 *103:64 1.09834e-05
6 *33:10 *105:140 1.1258e-05
7 *33:10 *157:6 0.000429314
*RES
1 *419:Y *33:10 29.4059 
2 *33:10 *422:B1 23 
*END

*D_NET *34 0.00151296
*CONN
*I *423:A2_N I *D sky130_fd_sc_hd__o2bb2a_2
*I *420:X O *D sky130_fd_sc_hd__or3_2
*CAP
1 *423:A2_N 0.000504425
2 *420:X 4.36871e-05
3 *34:8 0.000548112
4 *423:A2_N *349:A 0.00010655
5 *423:A2_N *378:A2 1.22822e-05
6 *423:A2_N *423:B1 2.79543e-05
7 *423:A2_N *60:6 0.000103647
8 *423:A2_N *140:16 2.45549e-06
9 *423:A2_N *157:16 4.9662e-05
10 *34:8 *91:21 2.79004e-05
11 *34:8 *92:12 8.62876e-05
*RES
1 *420:X *34:8 39.2014 
2 *34:8 *423:A2_N 45.2914 
*END

*D_NET *35 0.000695537
*CONN
*I *422:C1 I *D sky130_fd_sc_hd__o221a_2
*I *421:Y O *D sky130_fd_sc_hd__a31oi_2
*CAP
1 *422:C1 0
2 *421:Y 0.000172204
3 *35:10 0.000172204
4 *35:10 *421:B1 0.00010018
5 *35:10 *90:12 4.31185e-05
6 *35:10 *127:6 1.40958e-05
7 *6:11 *35:10 0.000193734
*RES
1 *421:Y *35:10 42.1843 
2 *35:10 *422:C1 38 
*END

*D_NET *36 0.00101415
*CONN
*I *423:A1_N I *D sky130_fd_sc_hd__o2bb2a_2
*I *422:X O *D sky130_fd_sc_hd__o221a_2
*CAP
1 *423:A1_N 1.51686e-05
2 *422:X 0.000143894
3 *36:8 0.000159063
4 *423:A1_N *140:16 1.56058e-05
5 *36:8 *366:B 0.000342261
6 *36:8 *140:16 0.000338161
*RES
1 *422:X *36:8 42.7229 
2 *36:8 *423:A1_N 38.3004 
*END

*D_NET *37 0.000890891
*CONN
*I *425:B I *D sky130_fd_sc_hd__nor2_2
*I *424:Y O *D sky130_fd_sc_hd__o21ai_2
*CAP
1 *425:B 0
2 *424:Y 0.000270331
3 *37:8 0.000270331
4 *37:8 *421:B1 5.75756e-06
5 *37:8 *62:45 3.62854e-05
6 *37:8 *62:67 0.000134204
7 *37:8 *93:8 0.000173982
*RES
1 *424:Y *37:8 43.4271 
2 *37:8 *425:B 38 
*END

*D_NET *38 0.00179831
*CONN
*I *428:A1 I *D sky130_fd_sc_hd__o32a_2
*I *425:Y O *D sky130_fd_sc_hd__nor2_2
*CAP
1 *428:A1 0.00023612
2 *425:Y 0.000217606
3 *38:10 0.000453726
4 *428:A1 *428:B1 0.000142678
5 *428:A1 *105:130 9.41704e-05
6 *428:A1 *142:8 2.33782e-05
7 *428:A1 *158:34 3.20631e-05
8 *38:10 *62:43 5.5792e-05
9 *38:10 *62:45 3.46013e-05
10 *38:10 *62:67 0.000318557
11 *38:10 *149:18 9.04686e-05
12 *38:10 *149:26 9.91548e-05
*RES
1 *425:Y *38:10 43.8207 
2 *38:10 *428:A1 42.4536 
*END

*D_NET *39 0.00106674
*CONN
*I *428:A2 I *D sky130_fd_sc_hd__o32a_2
*I *426:X O *D sky130_fd_sc_hd__a31o_2
*CAP
1 *428:A2 0
2 *426:X 0.000219027
3 *39:10 0.000219027
4 *39:10 *105:130 6.12484e-05
5 *39:10 *105:140 0.000313135
6 *39:10 *140:16 5.23803e-05
7 *39:10 *141:8 2.04889e-05
8 *39:10 *149:70 5.58003e-05
9 *39:10 *158:21 2.46399e-05
10 *456:A *39:10 0.00010099
*RES
1 *426:X *39:10 43.6964 
2 *39:10 *428:A2 38 
*END

*D_NET *40 0.000553888
*CONN
*I *428:A3 I *D sky130_fd_sc_hd__o32a_2
*I *427:X O *D sky130_fd_sc_hd__a2bb2o_2
*CAP
1 *428:A3 0
2 *427:X 0.000161981
3 *40:10 0.000161981
4 *40:10 *427:A1_N 1.94812e-05
5 *40:10 *431:B1 8.06804e-06
6 *40:10 *478:A 6.57551e-05
7 *40:10 *105:130 1.33248e-05
8 *40:10 *158:21 1.14452e-05
9 *40:10 *158:34 0.000111852
*RES
1 *427:X *40:10 41.0036 
2 *40:10 *428:A3 38 
*END

*D_NET *41 0.00153596
*CONN
*I *436:A I *D sky130_fd_sc_hd__and2_2
*I *448:A1 I *D sky130_fd_sc_hd__a2111o_2
*I *429:X O *D sky130_fd_sc_hd__or2_2
*CAP
1 *436:A 0
2 *448:A1 0
3 *429:X 2.05586e-05
4 *41:14 0.000417769
5 *41:6 0.000438327
6 *41:6 *428:B1 0.000100477
7 *41:6 *159:43 0.000100477
8 *41:14 *362:B 0.000267773
9 *41:14 *448:A2 0.00017959
10 *41:14 *448:D1 1.09834e-05
*RES
1 *429:X *41:6 24.0979 
2 *41:6 *41:14 36.3386 
3 *41:14 *448:A1 23 
4 *41:6 *436:A 23 
*END

*D_NET *42 0.00366885
*CONN
*I *433:B1 I *D sky130_fd_sc_hd__a2bb2o_2
*I *432:A3 I *D sky130_fd_sc_hd__o31a_2
*I *431:B1 I *D sky130_fd_sc_hd__o21ai_2
*I *430:Y O *D sky130_fd_sc_hd__nor2_2
*CAP
1 *433:B1 9.84993e-05
2 *432:A3 0.000228453
3 *431:B1 0.000342221
4 *430:Y 8.09402e-05
5 *42:14 0.000925734
6 *42:8 0.0005345
7 *431:B1 *427:A1_N 0.000120222
8 *431:B1 *73:14 0.000187986
9 *431:B1 *76:16 2.81066e-05
10 *431:B1 *105:130 8.82787e-06
11 *431:B1 *158:47 5.93278e-05
12 *432:A3 *365:A 4.87453e-05
13 *432:A3 *432:B1 5.50106e-05
14 *432:A3 *478:A 2.64616e-05
15 *433:B1 *433:A2_N 5.3304e-05
16 *433:B1 *103:48 8.06804e-06
17 *42:8 *71:39 6.67764e-05
18 *42:14 *433:A2_N 0.000237534
19 *42:14 *71:39 9.53602e-05
20 *42:14 *73:14 0.000141888
21 *42:14 *105:114 0.000207798
22 *42:14 *149:18 0
23 *42:14 *158:47 5.08899e-05
24 *42:14 *159:10 0
25 *42:14 *159:21 0
26 *28:10 *432:A3 5.41288e-05
27 *40:10 *431:B1 8.06804e-06
*RES
1 *430:Y *42:8 39.9057 
2 *42:8 *42:14 9.36286 
3 *42:14 *431:B1 44.5871 
4 *42:14 *432:A3 41.9564 
5 *42:8 *433:B1 39.5743 
*END

*D_NET *43 0.00439612
*CONN
*I *441:B I *D sky130_fd_sc_hd__nand3_2
*I *435:A1 I *D sky130_fd_sc_hd__a21o_2
*I *440:A2 I *D sky130_fd_sc_hd__a21o_2
*I *431:Y O *D sky130_fd_sc_hd__o21ai_2
*CAP
1 *441:B 0
2 *435:A1 0.000386848
3 *440:A2 0.000581165
4 *431:Y 0
5 *43:37 0.000386848
6 *43:19 0.00030893
7 *43:4 0.000890096
8 *440:A2 *382:A 1.94693e-05
9 *440:A2 *382:B 5.3304e-05
10 *440:A2 *58:12 0.000190816
11 *440:A2 *76:16 4.02485e-05
12 *440:A2 *93:22 0.000181125
13 *440:A2 *93:35 9.41704e-05
14 *43:19 *365:A 0.000135037
15 *43:19 *432:B1 0.000149735
16 *43:19 *93:35 0.000111852
17 *43:19 *149:18 0.000111852
18 *43:37 *361:A 0.000317553
19 *43:37 *432:B1 3.55641e-05
20 *43:37 *435:B1 5.3304e-05
21 *43:37 *441:C 5.74187e-05
22 *43:37 *445:A1 3.11509e-05
23 *43:37 *63:78 6.69825e-05
24 *43:37 *72:6 9.84851e-05
25 *43:37 *72:14 9.41704e-05
*RES
1 *431:Y *43:4 23 
2 *43:4 *440:A2 33.15 
3 *43:4 *43:19 35.0336 
4 *43:19 *435:A1 23 
5 *435:A1 *43:37 32.3836 
6 *43:37 *441:B 23 
*END

*D_NET *44 0.000110811
*CONN
*I *435:A2 I *D sky130_fd_sc_hd__a21o_2
*I *432:X O *D sky130_fd_sc_hd__o31a_2
*CAP
1 *435:A2 2.79004e-05
2 *432:X 2.79004e-05
3 *435:A2 *432:B1 5.50106e-05
*RES
1 *432:X *435:A2 46.6214 
*END

*D_NET *45 0.000276482
*CONN
*I *434:C1 I *D sky130_fd_sc_hd__a311o_2
*I *433:X O *D sky130_fd_sc_hd__a2bb2o_2
*CAP
1 *434:C1 6.4731e-05
2 *433:X 6.4731e-05
3 *434:C1 *433:A1_N 1.14154e-05
4 *434:C1 *434:B1 0
5 *434:C1 *103:48 3.71251e-05
6 *434:C1 *159:23 9.84794e-05
*RES
1 *433:X *434:C1 47.9471 
*END

*D_NET *46 0.0019821
*CONN
*I *435:B1 I *D sky130_fd_sc_hd__a21o_2
*I *434:X O *D sky130_fd_sc_hd__a311o_2
*CAP
1 *435:B1 2.55356e-05
2 *434:X 0.000395991
3 *46:14 0.000421526
4 *435:B1 *432:B1 3.5082e-05
5 *435:B1 *445:A1 6.17437e-06
6 *46:14 *358:A_N 0
7 *46:14 *358:B 6.72929e-05
8 *46:14 *361:A 0.000218952
9 *46:14 *383:A1 0.000218952
10 *46:14 *383:B1 0
11 *46:14 *434:A3 5.50049e-05
12 *46:14 *69:8 0
13 *46:14 *71:10 0.000103464
14 *46:14 *103:48 0.000140259
15 *46:14 *159:31 7.55996e-05
16 *46:14 *159:43 0.000164968
17 *43:37 *435:B1 5.3304e-05
*RES
1 *434:X *46:14 48.9371 
2 *46:14 *435:B1 38.6214 
*END

*D_NET *47 0.0024525
*CONN
*I *436:B I *D sky130_fd_sc_hd__and2_2
*I *448:A2 I *D sky130_fd_sc_hd__a2111o_2
*I *435:X O *D sky130_fd_sc_hd__a21o_2
*CAP
1 *436:B 0
2 *448:A2 0.000223767
3 *435:X 0.00028939
4 *47:10 0.000513156
5 *448:A2 *362:B 0.000312451
6 *448:A2 *448:B1 0.000138859
7 *448:A2 *448:C1 2.02872e-05
8 *448:A2 *448:D1 0.00010766
9 *448:A2 *58:8 0.000161414
10 *47:10 *361:A 0.00014196
11 *47:10 *445:A1 0.00014196
12 *47:10 *58:8 0.000222004
13 *47:10 *99:38 0
14 *47:10 *105:74 0
15 *41:14 *448:A2 0.00017959
*RES
1 *435:X *47:10 45.0014 
2 *47:10 *448:A2 45.0429 
3 *47:10 *436:B 38 
*END

*D_NET *48 0.00136316
*CONN
*I *446:A I *D sky130_fd_sc_hd__and2_2
*I *449:A1 I *D sky130_fd_sc_hd__a211oi_2
*I *437:Y O *D sky130_fd_sc_hd__nand2_2
*CAP
1 *446:A 0
2 *449:A1 0.000124389
3 *437:Y 0
4 *48:19 0.000157554
5 *48:4 0.000281942
6 *449:A1 *58:12 0.000106277
7 *48:19 *56:10 0.00021967
8 *48:19 *56:23 0.000191148
9 *48:19 *59:29 9.00926e-05
10 *48:19 *59:39 0.000192088
*RES
1 *437:Y *48:4 23 
2 *48:4 *449:A1 25.5479 
3 *48:4 *48:19 35.4271 
4 *48:19 *446:A 23 
*END

*D_NET *49 0.0022837
*CONN
*I *439:A I *D sky130_fd_sc_hd__inv_2
*I *444:A2 I *D sky130_fd_sc_hd__a211o_2
*I *438:Y O *D sky130_fd_sc_hd__xnor2_2
*CAP
1 *439:A 0
2 *444:A2 0
3 *438:Y 3.3552e-05
4 *49:27 0.000340016
5 *49:14 0.000220223
6 *49:6 0.000593791
7 *49:6 *160:23 5.50106e-05
8 *49:14 *160:23 4.08664e-05
9 *49:14 *160:25 5.3304e-05
10 *49:14 *160:49 0.000135547
11 *49:27 *348:A 0
12 *49:27 *54:8 3.62323e-05
13 *49:27 *62:71 9.84794e-05
14 *49:27 *62:103 1.19692e-05
15 *49:27 *94:10 3.83778e-05
16 *49:27 *105:74 7.66342e-05
17 *49:27 *105:90 0.000179769
18 *49:27 *160:49 0.000369929
*RES
1 *438:Y *49:6 23.6214 
2 *49:6 *49:14 33.0036 
3 *49:14 *444:A2 23 
4 *49:6 *49:27 38.6379 
5 *49:27 *439:A 23 
*END

*D_NET *50 0.00129546
*CONN
*I *441:C I *D sky130_fd_sc_hd__nand3_2
*I *440:B1 I *D sky130_fd_sc_hd__a21o_2
*I *439:Y O *D sky130_fd_sc_hd__inv_2
*CAP
1 *441:C 7.16194e-05
2 *440:B1 0.000105189
3 *439:Y 0.000125454
4 *50:8 0.000302262
5 *440:B1 *58:12 5.67058e-05
6 *440:B1 *62:103 7.91493e-05
7 *440:B1 *63:78 2.70469e-05
8 *440:B1 *72:14 0.000110913
9 *441:C *445:A1 0.000139974
10 *441:C *445:A3 2.93335e-05
11 *441:C *63:78 7.44161e-06
12 *50:8 *62:103 8.82627e-05
13 *50:8 *63:78 3.72639e-05
14 *50:8 *72:14 3.47781e-05
15 *50:8 *105:74 2.26489e-05
16 *43:37 *441:C 5.74187e-05
*RES
1 *439:Y *50:8 40.61 
2 *50:8 *440:B1 40.8793 
3 *50:8 *441:C 40.0714 
*END

*D_NET *51 0.00066948
*CONN
*I *445:A2 I *D sky130_fd_sc_hd__a31o_2
*I *440:X O *D sky130_fd_sc_hd__a21o_2
*CAP
1 *445:A2 0
2 *440:X 0.000178482
3 *51:10 0.000178482
4 *51:10 *58:12 4.93812e-05
5 *51:10 *59:39 0.000116314
6 *51:10 *62:103 0.000146822
*RES
1 *440:X *51:10 42.0807 
2 *51:10 *445:A2 38 
*END

*D_NET *52 0.000607026
*CONN
*I *445:A3 I *D sky130_fd_sc_hd__a31o_2
*I *441:Y O *D sky130_fd_sc_hd__nand3_2
*CAP
1 *445:A3 0.000152299
2 *441:Y 0.000152299
3 *445:A3 *445:A1 4.04494e-05
4 *445:A3 *445:B1 5.79559e-05
5 *445:A3 *56:23 1.3523e-05
6 *445:A3 *63:78 0.000161166
7 *441:C *445:A3 2.93335e-05
*RES
1 *441:Y *445:A3 49.9771 
*END

*D_NET *53 0.00170705
*CONN
*I *444:B1 I *D sky130_fd_sc_hd__a211o_2
*I *442:X O *D sky130_fd_sc_hd__a31o_2
*CAP
1 *444:B1 0.000452486
2 *442:X 6.56498e-05
3 *53:8 0.000518136
4 *444:B1 *444:A1 5.90675e-06
5 *444:B1 *103:29 0.000457776
6 *444:B1 *103:48 4.96717e-05
7 *53:8 *438:B 4.80826e-05
8 *53:8 *150:33 0.000109343
*RES
1 *442:X *53:8 39.5536 
2 *53:8 *444:B1 45.4779 
*END

*D_NET *54 0.000392275
*CONN
*I *444:C1 I *D sky130_fd_sc_hd__a211o_2
*I *443:Y O *D sky130_fd_sc_hd__nor2_2
*CAP
1 *444:C1 0
2 *443:Y 0.000118877
3 *54:8 0.000118877
4 *54:8 *348:A 4.21594e-06
5 *54:8 *358:A_N 0
6 *54:8 *105:90 0.000114074
7 *49:27 *54:8 3.62323e-05
*RES
1 *443:Y *54:8 40.61 
2 *54:8 *444:C1 38 
*END

*D_NET *55 0.00156248
*CONN
*I *445:B1 I *D sky130_fd_sc_hd__a31o_2
*I *444:X O *D sky130_fd_sc_hd__a211o_2
*CAP
1 *445:B1 1.1212e-05
2 *444:X 0.00043779
3 *55:10 0.000449002
4 *445:B1 *445:A1 3.07986e-05
5 *55:10 *56:23 0
6 *55:10 *62:103 0.000270393
7 *55:10 *65:36 0.000212622
8 *55:10 *94:10 3.76761e-05
9 *55:10 *160:49 5.50302e-05
10 *445:A3 *445:B1 5.79559e-05
*RES
1 *444:X *55:10 47.2179 
2 *55:10 *445:B1 38.6214 
*END

*D_NET *56 0.00122877
*CONN
*I *446:B I *D sky130_fd_sc_hd__and2_2
*I *449:A2 I *D sky130_fd_sc_hd__a211oi_2
*I *445:X O *D sky130_fd_sc_hd__a31o_2
*CAP
1 *446:B 0
2 *449:A2 0
3 *445:X 0
4 *56:23 0.000150125
5 *56:10 0.000144365
6 *56:4 0.000294489
7 *56:10 *59:39 1.26005e-05
8 *56:10 *131:10 0
9 *56:23 *59:39 0.000108681
10 *56:23 *63:78 9.41704e-05
11 *445:A3 *56:23 1.3523e-05
12 *48:19 *56:10 0.00021967
13 *48:19 *56:23 0.000191148
14 *55:10 *56:23 0
*RES
1 *445:X *56:4 23 
2 *56:4 *56:10 33.3143 
3 *56:10 *449:A2 23 
4 *56:4 *56:23 33.7079 
5 *56:23 *446:B 23 
*END

*D_NET *57 0.00277451
*CONN
*I *448:D1 I *D sky130_fd_sc_hd__a2111o_2
*I *447:X O *D sky130_fd_sc_hd__or3_2
*CAP
1 *448:D1 0.000460036
2 *447:X 0.00041291
3 *57:10 0.000872947
4 *448:D1 *105:72 0.00015148
5 *448:D1 *134:68 9.77405e-05
6 *448:D1 *151:93 0.000312776
7 *57:10 *64:8 0.000164392
8 *57:10 *100:16 0.000109352
9 *57:10 *134:68 7.42327e-05
10 *448:A2 *448:D1 0.00010766
11 *41:14 *448:D1 1.09834e-05
*RES
1 *447:X *57:10 45.3743 
2 *57:10 *448:D1 48.6264 
*END

*D_NET *58 0.0030209
*CONN
*I *449:C1 I *D sky130_fd_sc_hd__a211oi_2
*I *448:X O *D sky130_fd_sc_hd__a2111o_2
*CAP
1 *449:C1 0
2 *448:X 0.000203845
3 *58:12 0.00068462
4 *58:8 0.000888465
5 *58:8 *76:31 6.0616e-05
6 *58:8 *99:38 0
7 *58:8 *152:10 0.000110258
8 *58:12 *62:103 0.000190627
9 *58:12 *144:23 9.58714e-05
10 *440:A2 *58:12 0.000190816
11 *440:B1 *58:12 5.67058e-05
12 *448:A2 *58:8 0.000161414
13 *449:A1 *58:12 0.000106277
14 *47:10 *58:8 0.000222004
15 *51:10 *58:12 4.93812e-05
*RES
1 *448:X *58:8 43.075 
2 *58:8 *58:12 29.4379 
3 *58:12 *449:C1 23 
*END

*D_NET *59 0.00396644
*CONN
*I *355:A I *D sky130_fd_sc_hd__nor2_2
*I *437:A I *D sky130_fd_sc_hd__nand2_2
*I *359:A1 I *D sky130_fd_sc_hd__a21boi_2
*I *348:Y O *D sky130_fd_sc_hd__inv_2
*CAP
1 *355:A 0
2 *437:A 0
3 *359:A1 2.63582e-05
4 *348:Y 0.000278682
5 *59:39 0.000222044
6 *59:29 0.000588614
7 *59:14 0.000482468
8 *59:12 8.95389e-05
9 *59:10 0.000278682
10 *359:A1 *359:A2 0.000100061
11 *359:A1 *94:16 5.40241e-05
12 *59:10 *65:36 0.00023951
13 *59:10 *103:29 0.000121072
14 *59:10 *103:48 0.00021126
15 *59:10 *105:90 0.000303724
16 *59:10 *143:10 5.04049e-05
17 *59:14 *359:A2 0.000100069
18 *59:14 *359:B1_N 0.000100061
19 *59:14 *94:16 0.000139368
20 *59:29 *62:73 2.66596e-05
21 *59:29 *131:35 0
22 *59:29 *143:10 3.40618e-05
23 *59:39 *62:103 0
24 *48:19 *59:29 9.00926e-05
25 *48:19 *59:39 0.000192088
26 *51:10 *59:39 0.000116314
27 *56:10 *59:39 1.26005e-05
28 *56:23 *59:39 0.000108681
*RES
1 *348:Y *59:10 45.5193 
2 *59:10 *59:12 15 
3 *59:12 *59:14 3.00357 
4 *59:14 *359:A1 24.0979 
5 *59:14 *59:29 35.2407 
6 *59:29 *59:39 35.4893 
7 *59:39 *437:A 23 
8 *59:12 *355:A 23 
*END

*D_NET *60 0.00177382
*CONN
*I *378:A1 I *D sky130_fd_sc_hd__a21oi_2
*I *379:A I *D sky130_fd_sc_hd__xnor2_2
*I *369:A1 I *D sky130_fd_sc_hd__o22a_2
*I *349:Y O *D sky130_fd_sc_hd__inv_2
*CAP
1 *378:A1 0
2 *379:A 0.000182822
3 *369:A1 0.000138225
4 *349:Y 3.81613e-05
5 *60:10 0.000490711
6 *60:6 0.000207825
7 *369:A1 *77:17 0
8 *369:A1 *80:8 0
9 *369:A1 *82:10 0
10 *369:A1 *91:21 0
11 *379:A *380:A 0.000135952
12 *379:A *91:6 9.84851e-05
13 *60:6 *378:A2 0.00010018
14 *60:6 *423:B1 7.22308e-05
15 *60:10 *378:A2 0
16 *60:10 *77:17 0
17 *60:10 *89:10 1.12487e-05
18 *60:10 *91:21 0
19 *60:10 *92:12 0.000194327
20 *423:A2_N *60:6 0.000103647
*RES
1 *349:Y *60:6 25.0507 
2 *60:6 *60:10 18.6664 
3 *60:10 *369:A1 40.2579 
4 *60:10 *379:A 41.9771 
5 *60:6 *378:A1 23 
*END

*D_NET *61 0.00276161
*CONN
*I *369:B2 I *D sky130_fd_sc_hd__o22a_2
*I *370:A I *D sky130_fd_sc_hd__and2_2
*I *368:A I *D sky130_fd_sc_hd__nor2_2
*I *350:Y O *D sky130_fd_sc_hd__inv_2
*CAP
1 *369:B2 0.0002443
2 *370:A 0
3 *368:A 0.000248452
4 *350:Y 0.00033859
5 *61:27 0.0002443
6 *61:10 0.000587042
7 *368:A *415:A3 1.83667e-05
8 *368:A *78:19 2.93788e-05
9 *368:A *88:12 0
10 *368:A *126:10 0.00010609
11 *369:B2 *369:B1 0.000341684
12 *369:B2 *78:6 9.84851e-05
13 *369:B2 *78:13 4.17736e-05
14 *369:B2 *81:10 9.4713e-05
15 *61:10 *415:A3 0.000108569
16 *61:10 *418:A1 1.12695e-05
17 *61:10 *62:29 0
18 *61:10 *63:20 3.58084e-06
19 *61:10 *78:19 9.48381e-06
20 *61:10 *79:19 0
21 *61:10 *82:27 0.000149447
22 *61:10 *103:80 5.67058e-05
23 *61:10 *155:12 2.93747e-05
*RES
1 *350:Y *61:10 44.6493 
2 *61:10 *368:A 42.8264 
3 *61:10 *61:27 15 
4 *61:27 *370:A 23 
5 *61:27 *369:B2 29.3593 
*END

*D_NET *62 0.0176122
*CONN
*I *434:B1 I *D sky130_fd_sc_hd__a311o_2
*I *437:B I *D sky130_fd_sc_hd__nand2_2
*I *393:B1 I *D sky130_fd_sc_hd__a31o_2
*I *442:B1 I *D sky130_fd_sc_hd__a31o_2
*I *426:B1 I *D sky130_fd_sc_hd__a31o_2
*I *421:B1 I *D sky130_fd_sc_hd__a31oi_2
*I *415:B1 I *D sky130_fd_sc_hd__a31o_2
*I *406:B1 I *D sky130_fd_sc_hd__a31o_2
*I *351:X O *D sky130_fd_sc_hd__and2_2
*CAP
1 *434:B1 0.000309772
2 *437:B 0
3 *393:B1 0
4 *442:B1 0
5 *426:B1 2.93259e-05
6 *421:B1 0.000387004
7 *415:B1 0
8 *406:B1 0
9 *351:X 0.000758694
10 *62:103 0.000287173
11 *62:85 0.000564972
12 *62:73 0.000877657
13 *62:71 0.00106755
14 *62:67 0.00138909
15 *62:45 0.000470099
16 *62:43 0.00121153
17 *62:29 0.000555688
18 *62:16 0.000769088
19 *62:6 0.00153734
20 *421:B1 *92:12 0
21 *421:B1 *127:6 0.000151601
22 *426:B1 *149:26 5.58003e-05
23 *434:B1 *358:B 0
24 *434:B1 *434:A3 5.50106e-05
25 *434:B1 *103:48 0.00010253
26 *434:B1 *149:18 0.00011445
27 *434:B1 *159:23 4.21281e-05
28 *434:B1 *159:31 0.000271502
29 *434:B1 *159:43 3.43537e-05
30 *62:6 *149:36 0.000141352
31 *62:6 *151:93 6.55954e-05
32 *62:16 *353:C_N 8.15864e-05
33 *62:16 *387:A 2.95526e-05
34 *62:16 *447:A 0.000141355
35 *62:16 *447:C 1.0092e-05
36 *62:16 *86:8 0.000134776
37 *62:16 *100:16 9.66585e-05
38 *62:16 *132:30 3.94853e-05
39 *62:16 *134:75 7.05853e-05
40 *62:16 *148:26 5.15593e-05
41 *62:16 *151:63 0.00010556
42 *62:16 *151:93 6.17437e-06
43 *62:29 *367:B 0.000378643
44 *62:29 *415:A3 0.000201241
45 *62:29 *100:78 0.000140875
46 *62:29 *103:64 0.000114959
47 *62:29 *103:80 2.93111e-05
48 *62:29 *134:83 3.88629e-05
49 *62:29 *146:53 2.05503e-05
50 *62:29 *147:12 0.000107664
51 *62:29 *149:36 1.223e-05
52 *62:29 *156:23 0.000249342
53 *62:43 *388:A 5.76359e-05
54 *62:43 *99:6 2.95423e-05
55 *62:43 *99:23 7.64944e-05
56 *62:43 *149:26 0.000113533
57 *62:43 *149:36 2.96073e-05
58 *62:67 *431:A1 0.000212621
59 *62:67 *74:17 0.000154138
60 *62:67 *93:8 0
61 *62:67 *149:18 3.39335e-05
62 *62:67 *159:43 0.000199263
63 *62:71 *383:A2 5.41288e-05
64 *62:71 *383:B1 0.0002246
65 *62:71 *383:D1 2.35777e-05
66 *62:71 *94:10 0.000484545
67 *62:73 *143:10 5.79559e-05
68 *62:85 *354:A 0.000166522
69 *62:85 *385:A 1.59094e-05
70 *62:85 *393:A3 5.3304e-05
71 *62:85 *96:10 0
72 *62:85 *103:16 0.000122634
73 *62:85 *131:10 3.70187e-05
74 *62:85 *131:35 0.000358484
75 *62:85 *150:24 0
76 *62:85 *151:115 0.000138431
77 *62:103 *105:74 0
78 *434:C1 *434:B1 0
79 *440:B1 *62:103 7.91493e-05
80 *6:11 *421:B1 6.02561e-05
81 *35:10 *421:B1 0.00010018
82 *37:8 *421:B1 5.75756e-06
83 *37:8 *62:45 3.62854e-05
84 *37:8 *62:67 0.000134204
85 *38:10 *62:43 5.5792e-05
86 *38:10 *62:45 3.46013e-05
87 *38:10 *62:67 0.000318557
88 *49:27 *62:71 9.84794e-05
89 *49:27 *62:103 1.19692e-05
90 *50:8 *62:103 8.82627e-05
91 *51:10 *62:103 0.000146822
92 *55:10 *62:103 0.000270393
93 *58:12 *62:103 0.000190627
94 *59:29 *62:73 2.66596e-05
95 *59:39 *62:103 0
96 *61:10 *62:29 0
*RES
1 *351:X *62:6 26.0036 
2 *62:6 *62:16 42.2007 
3 *62:16 *406:B1 23 
4 *62:6 *62:29 43.1121 
5 *62:29 *415:B1 23 
6 *351:X *62:43 45.7679 
7 *62:43 *62:45 1.20143 
8 *62:45 *421:B1 46.4307 
9 *62:45 *426:B1 38.6214 
10 *62:43 *62:67 13.8786 
11 *62:67 *62:71 25.6264 
12 *62:71 *62:73 4.90929 
13 *62:73 *62:85 42.7186 
14 *62:85 *442:B1 23 
15 *62:73 *393:B1 23 
16 *62:71 *62:103 38.1821 
17 *62:103 *437:B 23 
18 *62:67 *434:B1 45.6229 
*END

*D_NET *63 0.014371
*CONN
*I *401:A2 I *D sky130_fd_sc_hd__a21o_2
*I *400:A2 I *D sky130_fd_sc_hd__o21a_4
*I *407:B1 I *D sky130_fd_sc_hd__o32a_2
*I *429:B I *D sky130_fd_sc_hd__or2_2
*I *428:B1 I *D sky130_fd_sc_hd__o32a_2
*I *423:B1 I *D sky130_fd_sc_hd__o2bb2a_2
*I *417:B1 I *D sky130_fd_sc_hd__o32a_2
*I *352:Y O *D sky130_fd_sc_hd__nand2_2
*CAP
1 *401:A2 3.16304e-05
2 *400:A2 0
3 *407:B1 0
4 *429:B 0
5 *428:B1 0.000404012
6 *423:B1 0.00058275
7 *417:B1 0
8 *352:Y 1.97983e-05
9 *63:92 0.00055395
10 *63:84 0.00113699
11 *63:78 0.00140421
12 *63:52 0.000404012
13 *63:50 0.00130698
14 *63:20 0.000545046
15 *63:12 0.00134285
16 *63:8 0.000752301
17 *401:A2 *401:A1 3.85196e-05
18 *423:B1 *349:A 4.79641e-05
19 *423:B1 *378:A2 0.000185428
20 *423:B1 *378:B1 9.5877e-05
21 *423:B1 *423:B2 3.91386e-05
22 *423:B1 *89:10 5.50049e-05
23 *423:B1 *155:12 0.000179649
24 *428:B1 *424:B1 0.00016614
25 *428:B1 *142:8 0.000476255
26 *428:B1 *152:10 0.000395514
27 *428:B1 *159:43 0.000106023
28 *63:8 *352:A 1.35714e-05
29 *63:8 *389:B 7.61229e-06
30 *63:8 *103:64 5.5792e-05
31 *63:12 *100:78 8.52094e-06
32 *63:12 *103:64 0.000143993
33 *63:20 *412:A 2.72789e-05
34 *63:20 *416:A2_N 0.000228846
35 *63:20 *416:B1 0.000137651
36 *63:20 *103:80 1.31467e-05
37 *63:20 *155:12 1.76557e-05
38 *63:50 *100:78 6.5117e-06
39 *63:50 *105:74 0.000162263
40 *63:50 *134:83 2.23754e-05
41 *63:50 *149:36 0.000160125
42 *63:78 *72:14 0.000138718
43 *63:78 *105:74 0.000508816
44 *63:84 *401:A1 0.000266148
45 *63:84 *480:A 0.000110767
46 *63:84 *109:19 0.000426329
47 *63:84 *161:16 0
48 *63:92 *399:A 0.000138718
49 *63:92 *404:A1 0.000124692
50 *63:92 *404:A2 0
51 *63:92 *407:A3 5.5792e-05
52 *63:92 *100:46 0
53 *63:92 *100:58 0
54 *63:92 *132:10 0.000133515
55 *63:92 *153:10 0
56 *63:92 *161:27 6.16531e-05
57 *63:92 *162:20 0.000107149
58 *419:A2 *63:12 0
59 *423:A2_N *423:B1 2.79543e-05
60 *428:A1 *428:B1 0.000142678
61 *440:B1 *63:78 2.70469e-05
62 *441:C *63:78 7.44161e-06
63 *445:A3 *63:78 0.000161166
64 *18:11 *63:92 8.03985e-05
65 *19:13 *63:92 5.82853e-05
66 *32:10 *423:B1 0.000143655
67 *32:10 *63:12 0
68 *41:6 *428:B1 0.000100477
69 *43:37 *63:78 6.69825e-05
70 *50:8 *63:78 3.72639e-05
71 *56:23 *63:78 9.41704e-05
72 *60:6 *423:B1 7.22308e-05
73 *61:10 *63:20 3.58084e-06
*RES
1 *352:Y *63:8 38.6214 
2 *63:8 *63:12 19.3707 
3 *63:12 *63:20 37.6643 
4 *63:20 *417:B1 23 
5 *63:12 *423:B1 37.0236 
6 *63:8 *63:50 8.94857 
7 *63:50 *63:52 15 
8 *63:52 *428:B1 34.7657 
9 *63:52 *429:B 23 
10 *63:50 *63:78 29.6243 
11 *63:78 *63:84 10.6679 
12 *63:84 *63:92 42.035 
13 *63:92 *407:B1 23 
14 *63:84 *400:A2 23 
15 *63:78 *401:A2 23.8493 
*END

*D_NET *64 0.000747942
*CONN
*I *482:A I *D sky130_fd_sc_hd__buf_2
*I *471:A I *D sky130_fd_sc_hd__buf_8
*I *353:X O *D sky130_fd_sc_hd__or3b_4
*CAP
1 *482:A 0.000136304
2 *471:A 0
3 *353:X 0.000140292
4 *64:8 0.000276596
5 *482:A *150:12 2.38465e-05
6 *64:8 *134:68 6.5117e-06
7 *57:10 *64:8 0.000164392
*RES
1 *353:X *64:8 40.9621 
2 *64:8 *471:A 38 
3 *64:8 *482:A 40.61 
*END

*D_NET *65 0.00251235
*CONN
*I *355:B I *D sky130_fd_sc_hd__nor2_2
*I *438:B I *D sky130_fd_sc_hd__xnor2_2
*I *359:A2 I *D sky130_fd_sc_hd__a21boi_2
*I *354:X O *D sky130_fd_sc_hd__xor2_2
*CAP
1 *355:B 0
2 *438:B 0.000109187
3 *359:A2 0.000174417
4 *354:X 0
5 *65:36 0.000144331
6 *65:8 0.000330218
7 *65:4 0.000190945
8 *359:A2 *70:6 0.000191255
9 *359:A2 *94:16 1.59071e-05
10 *359:A2 *131:35 0
11 *359:A2 *143:10 0.000188344
12 *359:A2 *150:24 6.10551e-06
13 *438:B *143:10 0.000214318
14 *438:B *150:24 7.74528e-06
15 *438:B *150:33 2.09284e-05
16 *65:8 *103:29 4.96303e-05
17 *65:8 *105:90 4.96303e-05
18 *65:36 *103:29 7.87147e-05
19 *65:36 *105:90 4.03352e-05
20 *359:A1 *359:A2 0.000100061
21 *53:8 *438:B 4.80826e-05
22 *55:10 *65:36 0.000212622
23 *59:10 *65:36 0.00023951
24 *59:14 *359:A2 0.000100069
*RES
1 *354:X *65:4 23 
2 *65:4 *65:8 16.0979 
3 *65:8 *359:A2 43.1371 
4 *65:8 *438:B 40.9621 
5 *65:4 *65:36 34.5364 
6 *65:36 *355:B 23 
*END

*D_NET *66 0.0022712
*CONN
*I *358:A_N I *D sky130_fd_sc_hd__nand2b_2
*I *383:B1 I *D sky130_fd_sc_hd__a2111o_2
*I *355:Y O *D sky130_fd_sc_hd__nor2_2
*CAP
1 *358:A_N 0.000189668
2 *383:B1 0.000241021
3 *355:Y 0.000262373
4 *66:8 0.000693062
5 *358:A_N *348:A 0
6 *358:A_N *434:A3 0
7 *358:A_N *69:8 0.000141888
8 *358:A_N *105:90 0
9 *358:A_N *159:31 0
10 *383:B1 *383:D1 3.16665e-05
11 *383:B1 *71:10 0
12 *383:B1 *105:74 0
13 *66:8 *359:B1_N 0.000117759
14 *66:8 *94:16 5.50049e-05
15 *66:8 *105:108 0.000314157
16 *46:14 *358:A_N 0
17 *46:14 *383:B1 0
18 *54:8 *358:A_N 0
19 *62:71 *383:B1 0.0002246
*RES
1 *355:Y *66:8 43.8621 
2 *66:8 *383:B1 42.785 
3 *66:8 *358:A_N 41.6664 
*END

*D_NET *67 0.00142278
*CONN
*I *360:A_N I *D sky130_fd_sc_hd__and2b_2
*I *357:B I *D sky130_fd_sc_hd__and2b_2
*I *356:X O *D sky130_fd_sc_hd__xor2_2
*CAP
1 *360:A_N 1.31139e-05
2 *357:B 6.77192e-05
3 *356:X 0.000197686
4 *67:10 8.08331e-05
5 *67:8 0.000197686
6 *357:B *68:10 2.64616e-05
7 *357:B *105:108 9.75779e-05
8 *360:A_N *68:10 2.93845e-05
9 *360:A_N *105:108 4.34745e-05
10 *67:8 *430:A 0.00010394
11 *67:8 *434:A3 0
12 *67:8 *68:10 0.00021356
13 *67:8 *149:10 0.000135547
14 *67:8 *149:18 0.000215801
15 *67:8 *159:10 0
16 *67:8 *159:21 0
*RES
1 *356:X *67:8 43.075 
2 *67:8 *67:10 15 
3 *67:10 *357:B 24.595 
4 *67:10 *360:A_N 23.6214 
*END

*D_NET *68 0.00230824
*CONN
*I *430:A I *D sky130_fd_sc_hd__nor2_2
*I *358:B I *D sky130_fd_sc_hd__nand2b_2
*I *357:X O *D sky130_fd_sc_hd__and2b_2
*CAP
1 *430:A 0.000179029
2 *358:B 0.000356639
3 *357:X 0.000206859
4 *68:10 0.000742527
5 *358:B *434:A3 2.02872e-05
6 *358:B *103:48 2.32004e-05
7 *358:B *159:23 0.000136738
8 *358:B *159:31 0.00014196
9 *430:A *434:A3 0
10 *430:A *71:39 0
11 *68:10 *159:21 6.03634e-05
12 *357:B *68:10 2.64616e-05
13 *360:A_N *68:10 2.93845e-05
14 *434:B1 *358:B 0
15 *46:14 *358:B 6.72929e-05
16 *67:8 *430:A 0.00010394
17 *67:8 *68:10 0.00021356
*RES
1 *357:X *68:10 42.06 
2 *68:10 *358:B 43.9036 
3 *68:10 *430:A 41.48 
*END

*D_NET *69 0.00170667
*CONN
*I *359:B1_N I *D sky130_fd_sc_hd__a21boi_2
*I *358:Y O *D sky130_fd_sc_hd__nand2b_2
*CAP
1 *359:B1_N 0.000397176
2 *358:Y 7.86745e-05
3 *69:8 0.000475851
4 *359:B1_N *94:16 3.85311e-05
5 *359:B1_N *105:108 0.00035673
6 *358:A_N *69:8 0.000141888
7 *46:14 *69:8 0
8 *59:14 *359:B1_N 0.000100061
9 *66:8 *359:B1_N 0.000117759
*RES
1 *358:Y *69:8 39.9057 
2 *69:8 *359:B1_N 46.7207 
*END

*D_NET *70 0.00300115
*CONN
*I *397:A I *D sky130_fd_sc_hd__and3_4
*I *390:A1 I *D sky130_fd_sc_hd__a211o_2
*I *359:Y O *D sky130_fd_sc_hd__a21boi_2
*CAP
1 *397:A 0
2 *390:A1 0
3 *359:Y 0.000303849
4 *70:14 0.000422878
5 *70:6 0.000726727
6 *70:6 *397:B 8.84422e-05
7 *70:6 *94:16 1.83618e-05
8 *70:14 *397:B 3.52383e-05
9 *70:14 *96:16 1.06693e-05
10 *70:14 *97:16 0.000241355
11 *70:14 *100:58 0.000369939
12 *70:14 *101:10 2.3529e-05
13 *70:14 *107:27 1.59094e-05
14 *70:14 *154:10 0.000552992
15 *359:A2 *70:6 0.000191255
16 *18:11 *70:14 0
*RES
1 *359:Y *70:6 28.8621 
2 *70:6 *70:14 40.9993 
3 *70:14 *390:A1 23 
4 *70:6 *397:A 23 
*END

*D_NET *71 0.00367552
*CONN
*I *430:B I *D sky130_fd_sc_hd__nor2_2
*I *383:C1 I *D sky130_fd_sc_hd__a2111o_2
*I *361:A I *D sky130_fd_sc_hd__inv_2
*I *360:X O *D sky130_fd_sc_hd__and2b_2
*CAP
1 *430:B 0
2 *383:C1 0
3 *361:A 0.000221168
4 *360:X 0.000847377
5 *71:39 0.000197544
6 *71:10 0.000871001
7 *361:A *445:A1 9.74625e-05
8 *71:10 *357:A_N 5.50106e-05
9 *71:10 *105:108 0.000349015
10 *71:39 *159:21 9.28739e-05
11 *383:B1 *71:10 0
12 *430:A *71:39 0
13 *42:8 *71:39 6.67764e-05
14 *42:14 *71:39 9.53602e-05
15 *43:37 *361:A 0.000317553
16 *46:14 *361:A 0.000218952
17 *46:14 *71:10 0.000103464
18 *47:10 *361:A 0.00014196
*RES
1 *360:X *71:10 48.0257 
2 *71:10 *361:A 45.0636 
3 *71:10 *383:C1 38 
4 *360:X *71:39 42.7229 
5 *71:39 *430:B 38 
*END

*D_NET *72 0.000838675
*CONN
*I *441:A I *D sky130_fd_sc_hd__nand3_2
*I *440:A1 I *D sky130_fd_sc_hd__a21o_2
*I *361:Y O *D sky130_fd_sc_hd__inv_2
*CAP
1 *441:A 0
2 *440:A1 0
3 *361:Y 2.06886e-05
4 *72:14 0.00011276
5 *72:6 0.000133449
6 *72:6 *445:A1 4.79641e-05
7 *72:14 *445:A1 4.67488e-05
8 *440:B1 *72:14 0.000110913
9 *43:37 *72:6 9.84851e-05
10 *43:37 *72:14 9.41704e-05
11 *50:8 *72:14 3.47781e-05
12 *63:78 *72:14 0.000138718
*RES
1 *361:Y *72:6 24.0979 
2 *72:6 *72:14 33.0036 
3 *72:14 *440:A1 23 
4 *72:6 *441:A 23 
*END

*D_NET *73 0.00293537
*CONN
*I *363:A_N I *D sky130_fd_sc_hd__and2b_2
*I *364:B I *D sky130_fd_sc_hd__and2b_2
*I *362:X O *D sky130_fd_sc_hd__xor2_2
*CAP
1 *363:A_N 0.00014879
2 *364:B 0
3 *362:X 0.000306354
4 *73:14 0.000537897
5 *73:10 0.000695461
6 *363:A_N *363:B 5.50049e-05
7 *363:A_N *159:10 0.000102093
8 *73:10 *362:A 1.12084e-05
9 *73:10 *362:B 3.08719e-06
10 *73:14 *103:56 0.000181809
11 *73:14 *105:114 0.000376252
12 *73:14 *105:130 0.000101784
13 *73:14 *141:8 8.57577e-05
14 *73:14 *158:34 0
15 *73:14 *158:47 0
16 *431:B1 *73:14 0.000187986
17 *42:14 *73:14 0.000141888
*RES
1 *362:X *73:10 41.9771 
2 *73:10 *73:14 25.005 
3 *73:14 *364:B 23 
4 *73:14 *363:A_N 26.3764 
*END

*D_NET *74 0.0037888
*CONN
*I *432:A1 I *D sky130_fd_sc_hd__o31a_2
*I *365:A I *D sky130_fd_sc_hd__nor2_2
*I *431:A1 I *D sky130_fd_sc_hd__o21ai_2
*I *383:D1 I *D sky130_fd_sc_hd__a2111o_2
*I *363:X O *D sky130_fd_sc_hd__and2b_2
*CAP
1 *432:A1 0
2 *365:A 0.000369823
3 *431:A1 9.83398e-05
4 *383:D1 0.000321076
5 *363:X 3.65899e-05
6 *74:28 0.000369823
7 *74:17 0.000172079
8 *74:6 0.000431405
9 *365:A *432:B1 0.000157781
10 *365:A *478:A 5.3304e-05
11 *365:A *76:6 9.5877e-05
12 *365:A *76:10 0.000388071
13 *383:D1 *383:A2 7.4416e-05
14 *431:A1 *93:35 0.000185755
15 *431:A1 *149:18 9.20311e-06
16 *74:6 *383:A2 2.93845e-05
17 *74:17 *93:35 1.01436e-05
18 *74:17 *149:18 7.45175e-05
19 *383:B1 *383:D1 3.16665e-05
20 *432:A3 *365:A 4.87453e-05
21 *28:10 *365:A 0.000305425
22 *43:19 *365:A 0.000135037
23 *62:67 *431:A1 0.000212621
24 *62:67 *74:17 0.000154138
25 *62:71 *383:D1 2.35777e-05
*RES
1 *363:X *74:6 23.6214 
2 *74:6 *383:D1 26.9564 
3 *74:6 *74:17 17.2579 
4 *74:17 *431:A1 40.9621 
5 *74:17 *74:28 15 
6 *74:28 *365:A 32.86 
7 *74:28 *432:A1 23 
*END

*D_NET *75 0.000713263
*CONN
*I *365:B I *D sky130_fd_sc_hd__nor2_2
*I *364:X O *D sky130_fd_sc_hd__and2b_2
*CAP
1 *365:B 0
2 *364:X 0.000311058
3 *75:10 0.000311058
4 *75:10 *103:50 0
5 *75:10 *159:10 2.20111e-05
6 *8:11 *75:10 6.63698e-05
7 *28:10 *75:10 2.76611e-06
*RES
1 *364:X *75:10 43.6136 
2 *75:10 *365:B 38 
*END

*D_NET *76 0.00481616
*CONN
*I *427:B2 I *D sky130_fd_sc_hd__a2bb2o_2
*I *383:A2 I *D sky130_fd_sc_hd__a2111o_2
*I *424:A1 I *D sky130_fd_sc_hd__o21ai_2
*I *382:A I *D sky130_fd_sc_hd__and2_2
*I *365:Y O *D sky130_fd_sc_hd__nor2_2
*CAP
1 *427:B2 0
2 *383:A2 0.000319842
3 *424:A1 0
4 *382:A 6.10069e-05
5 *365:Y 0.000107401
6 *76:53 4.28165e-05
7 *76:31 8.75242e-05
8 *76:16 0.000609517
9 *76:10 0.0011028
10 *76:6 0.000472185
11 *383:A2 *363:B 9.84794e-05
12 *383:A2 *478:A 5.01986e-05
13 *383:A2 *149:18 6.53609e-05
14 *383:A2 *158:47 0.000127672
15 *76:16 *382:B 2.64616e-05
16 *76:16 *478:A 0.000194327
17 *76:16 *93:22 9.91798e-05
18 *76:16 *93:35 4.79641e-05
19 *76:16 *158:34 3.3123e-05
20 *76:16 *158:47 6.07929e-05
21 *76:31 *99:38 0.000191048
22 *76:53 *103:50 0.000114074
23 *365:A *76:6 9.5877e-05
24 *365:A *76:10 0.000388071
25 *383:D1 *383:A2 7.4416e-05
26 *431:B1 *76:16 2.81066e-05
27 *440:A2 *382:A 1.94693e-05
28 *440:A2 *76:16 4.02485e-05
29 *28:10 *76:53 0.000114074
30 *58:8 *76:31 6.0616e-05
31 *62:71 *383:A2 5.41288e-05
32 *74:6 *383:A2 2.93845e-05
*RES
1 *365:Y *76:6 24.5743 
2 *76:6 *76:10 19.4329 
3 *76:10 *76:16 23.9486 
4 *76:16 *382:A 24.1186 
5 *76:16 *76:31 32.61 
6 *76:31 *424:A1 23 
7 *76:10 *383:A2 45.6229 
8 *76:6 *76:53 31.5536 
9 *76:53 *427:B2 23 
*END

*D_NET *77 0.00179016
*CONN
*I *378:A2 I *D sky130_fd_sc_hd__a21oi_2
*I *379:B I *D sky130_fd_sc_hd__xnor2_2
*I *369:A2 I *D sky130_fd_sc_hd__o22a_2
*I *366:X O *D sky130_fd_sc_hd__xor2_2
*CAP
1 *378:A2 0.000193306
2 *379:B 0
3 *369:A2 0.00019198
4 *366:X 0.0001109
5 *77:17 0.000415752
6 *77:6 0.000525326
7 *378:A2 *349:A 5.50049e-05
8 *378:A2 *90:12 0
9 *77:17 *366:B 0
10 *77:17 *90:12 0
11 *369:A1 *77:17 0
12 *423:A2_N *378:A2 1.22822e-05
13 *423:B1 *378:A2 0.000185428
14 *60:6 *378:A2 0.00010018
15 *60:10 *378:A2 0
16 *60:10 *77:17 0
*RES
1 *366:X *77:6 25.0507 
2 *77:6 *369:A2 26.48 
3 *77:6 *77:17 18.3143 
4 *77:17 *379:B 38 
5 *77:17 *378:A2 42.6607 
*END

*D_NET *78 0.00147182
*CONN
*I *369:B1 I *D sky130_fd_sc_hd__o22a_2
*I *368:B I *D sky130_fd_sc_hd__nor2_2
*I *370:B I *D sky130_fd_sc_hd__and2_2
*I *367:X O *D sky130_fd_sc_hd__xor2_2
*CAP
1 *369:B1 0.000165722
2 *368:B 0
3 *370:B 0
4 *367:X 7.82363e-05
5 *78:19 0.00014724
6 *78:13 0.000341704
7 *78:6 0.000106979
8 *78:19 *79:19 0.000111138
9 *78:19 *81:10 0
10 *368:A *78:19 2.93788e-05
11 *369:B2 *369:B1 0.000341684
12 *369:B2 *78:6 9.84851e-05
13 *369:B2 *78:13 4.17736e-05
14 *61:10 *78:19 9.48381e-06
*RES
1 *367:X *78:6 24.5743 
2 *78:6 *370:B 23 
3 *78:6 *78:13 0.621429 
4 *78:13 *78:19 33.3143 
5 *78:19 *368:B 23 
6 *78:13 *369:B1 26.9564 
*END

*D_NET *79 0.00150465
*CONN
*I *418:B1 I *D sky130_fd_sc_hd__a21oi_2
*I *371:A I *D sky130_fd_sc_hd__nor2_2
*I *368:Y O *D sky130_fd_sc_hd__nor2_2
*CAP
1 *418:B1 0
2 *371:A 7.1809e-05
3 *368:Y 0
4 *79:19 0.000368937
5 *79:4 0.000440746
6 *371:A *82:10 3.22879e-05
7 *79:19 *418:A1 0
8 *79:19 *81:10 1.02387e-05
9 *79:19 *82:10 0.000373091
10 *79:19 *82:27 0
11 *79:19 *88:54 9.64022e-05
12 *61:10 *79:19 0
13 *78:19 *79:19 0.000111138
*RES
1 *368:Y *79:4 23 
2 *79:4 *371:A 24.595 
3 *79:4 *79:19 38.2443 
4 *79:19 *418:B1 23 
*END

*D_NET *80 0.00106281
*CONN
*I *378:B1 I *D sky130_fd_sc_hd__a21oi_2
*I *369:X O *D sky130_fd_sc_hd__o22a_2
*CAP
1 *378:B1 5.5204e-05
2 *369:X 0.000216494
3 *80:8 0.000271698
4 *378:B1 *155:12 1.24376e-05
5 *80:8 *82:10 4.23714e-05
6 *80:8 *88:54 9.64022e-05
7 *80:8 *91:21 0.000272321
8 *369:A1 *80:8 0
9 *423:B1 *378:B1 9.5877e-05
*RES
1 *369:X *80:8 42.7229 
2 *80:8 *378:B1 39.0979 
*END

*D_NET *81 0.000788439
*CONN
*I *371:B I *D sky130_fd_sc_hd__nor2_2
*I *370:X O *D sky130_fd_sc_hd__and2_2
*CAP
1 *371:B 2.82018e-05
2 *370:X 0.000272277
3 *81:10 0.000300479
4 *371:B *82:10 2.93845e-05
5 *81:10 *82:10 5.31444e-05
6 *369:B2 *81:10 9.4713e-05
7 *78:19 *81:10 0
8 *79:19 *81:10 1.02387e-05
*RES
1 *370:X *81:10 42.3086 
2 *81:10 *371:B 38.6214 
*END

*D_NET *82 0.00517259
*CONN
*I *381:A1 I *D sky130_fd_sc_hd__a31o_4
*I *418:A1 I *D sky130_fd_sc_hd__a21oi_2
*I *416:B2 I *D sky130_fd_sc_hd__a2bb2o_2
*I *413:A1 I *D sky130_fd_sc_hd__a21oi_2
*I *414:A1 I *D sky130_fd_sc_hd__o21a_2
*I *371:Y O *D sky130_fd_sc_hd__nor2_2
*CAP
1 *381:A1 0
2 *418:A1 6.43098e-05
3 *416:B2 5.89636e-05
4 *413:A1 0.00093947
5 *414:A1 6.46083e-05
6 *371:Y 0.000305679
7 *82:31 0.00129224
8 *82:27 0.000453669
9 *82:16 0.000219764
10 *82:14 0.00013022
11 *82:10 0.000376292
12 *413:A1 *372:B 0
13 *413:A1 *475:A 0
14 *413:A1 *88:29 0
15 *413:A1 *146:53 0.000173053
16 *414:A1 *381:A3 5.50049e-05
17 *416:B2 *367:B 7.07958e-05
18 *418:A1 *88:54 0
19 *418:A1 *103:80 2.22183e-05
20 *82:14 *381:A2 4.9662e-05
21 *82:14 *88:54 5.3304e-05
22 *82:31 *146:53 0.000152334
23 *369:A1 *82:10 0
24 *371:A *82:10 3.22879e-05
25 *371:B *82:10 2.93845e-05
26 *61:10 *418:A1 1.12695e-05
27 *61:10 *82:27 0.000149447
28 *79:19 *418:A1 0
29 *79:19 *82:10 0.000373091
30 *79:19 *82:27 0
31 *80:8 *82:10 4.23714e-05
32 *81:10 *82:10 5.31444e-05
*RES
1 *371:Y *82:10 45.1257 
2 *82:10 *82:14 16.5743 
3 *82:14 *82:16 1.09786 
4 *82:16 *414:A1 24.0979 
5 *82:16 *82:27 17.0818 
6 *82:27 *82:31 8.65707 
7 *82:31 *413:A1 48.0396 
8 *82:31 *416:B2 47.0254 
9 *82:27 *418:A1 39.3775 
10 *82:14 *381:A1 23 
*END

*D_NET *83 0.00292462
*CONN
*I *373:A_N I *D sky130_fd_sc_hd__and2b_2
*I *374:A I *D sky130_fd_sc_hd__xnor2_2
*I *372:X O *D sky130_fd_sc_hd__xor2_2
*CAP
1 *373:A_N 0
2 *374:A 0
3 *372:X 0.000132619
4 *83:23 0.00105698
5 *83:8 0.00118959
6 *83:8 *372:B 0
7 *83:8 *377:A1 3.97571e-05
8 *83:8 *85:23 0
9 *83:23 *372:B 0
10 *83:23 *376:A1 7.04044e-05
11 *83:23 *410:A1 0
12 *83:23 *411:B2 0
13 *83:23 *474:A 0.00022072
14 *83:23 *85:23 0
15 *83:23 *105:43 0
16 *83:23 *119:8 8.85189e-05
17 *83:23 *135:23 0
18 *83:23 *135:53 1.37232e-05
19 *83:23 *138:33 0
20 *83:23 *162:6 9.67842e-05
21 *83:23 *162:10 1.55246e-05
*RES
1 *372:X *83:8 40.9621 
2 *83:8 *374:A 38 
3 *83:8 *83:23 31.965 
4 *83:23 *373:A_N 23 
*END

*D_NET *84 0.00331242
*CONN
*I *377:B1 I *D sky130_fd_sc_hd__a21o_4
*I *373:X O *D sky130_fd_sc_hd__and2b_2
*CAP
1 *377:B1 0
2 *373:X 0.000284187
3 *84:18 0.000464726
4 *84:10 0.000748914
5 *84:10 *412:C 0.000266148
6 *84:10 *447:C 9.85378e-05
7 *84:10 *475:A 1.01436e-05
8 *84:10 *87:10 4.96264e-05
9 *84:18 *374:B 0.00026282
10 *84:18 *416:A2_N 0.000264564
11 *84:18 *475:A 0
12 *84:18 *87:34 0.000121262
13 *84:18 *135:23 0.000187996
14 *84:18 *135:53 0.000262864
15 *84:18 *151:43 0.000290634
*RES
1 *373:X *84:10 42.5571 
2 *84:10 *84:18 42.3043 
3 *84:18 *377:B1 38 
*END

*D_NET *85 0.00271804
*CONN
*I *411:B2 I *D sky130_fd_sc_hd__a2bb2o_2
*I *409:A1 I *D sky130_fd_sc_hd__o21a_2
*I *408:A1 I *D sky130_fd_sc_hd__a21oi_2
*I *377:A1 I *D sky130_fd_sc_hd__a21o_4
*I *374:Y O *D sky130_fd_sc_hd__xnor2_2
*CAP
1 *411:B2 0.000201012
2 *409:A1 0
3 *408:A1 0.000123312
4 *377:A1 0.000142296
5 *374:Y 8.89378e-05
6 *85:25 0.000123312
7 *85:23 0.00035522
8 *85:8 0.000385443
9 *377:A1 *372:B 0
10 *377:A1 *87:34 0.000158439
11 *408:A1 *408:B1 0.000169662
12 *408:A1 *409:B1 2.02872e-05
13 *408:A1 *413:B1 1.14154e-05
14 *408:A1 *117:8 0.000221084
15 *411:B2 *374:B 1.12487e-05
16 *411:B2 *411:A2_N 2.93845e-05
17 *411:B2 *416:A2_N 4.21281e-05
18 *411:B2 *87:34 6.16439e-05
19 *411:B2 *103:80 3.91386e-05
20 *411:B2 *118:12 0.000137651
21 *411:B2 *135:23 4.49946e-05
22 *411:B2 *135:27 0
23 *85:8 *374:B 9.5877e-05
24 *85:23 *87:34 0.000215791
25 *83:8 *377:A1 3.97571e-05
26 *83:8 *85:23 0
27 *83:23 *411:B2 0
28 *83:23 *85:23 0
*RES
1 *374:Y *85:8 39.5743 
2 *85:8 *377:A1 41.7286 
3 *85:8 *85:23 2.96214 
4 *85:23 *85:25 15 
5 *85:25 *408:A1 26.5214 
6 *85:25 *409:A1 23 
7 *85:23 *411:B2 42.6814 
*END

*D_NET *86 0.00113261
*CONN
*I *376:B1 I *D sky130_fd_sc_hd__o21ai_2
*I *375:Y O *D sky130_fd_sc_hd__nand2_2
*CAP
1 *376:B1 3.22355e-05
2 *375:Y 0.000224852
3 *86:8 0.000257088
4 *376:B1 *412:C 2.89076e-05
5 *376:B1 *474:A 9.67842e-05
6 *376:B1 *87:10 5.3304e-05
7 *86:8 *447:C 0.000102613
8 *86:8 *100:16 2.23467e-05
9 *86:8 *100:20 0.000107977
10 *86:8 *100:46 5.77452e-05
11 *86:8 *151:63 1.39826e-05
12 *62:16 *86:8 0.000134776
*RES
1 *375:Y *86:8 43.4271 
2 *86:8 *376:B1 39.0979 
*END

*D_NET *87 0.00329516
*CONN
*I *377:A2 I *D sky130_fd_sc_hd__a21o_4
*I *409:A2 I *D sky130_fd_sc_hd__o21a_2
*I *408:A2 I *D sky130_fd_sc_hd__a21oi_2
*I *376:Y O *D sky130_fd_sc_hd__o21ai_2
*CAP
1 *377:A2 0
2 *409:A2 3.28483e-05
3 *408:A2 0
4 *376:Y 0.000286722
5 *87:34 0.000188652
6 *87:21 0.000408117
7 *87:12 0.000186617
8 *87:10 0.000286722
9 *409:A2 *409:B1 9.58714e-05
10 *409:A2 *135:8 9.58714e-05
11 *87:10 *412:C 9.58714e-05
12 *87:10 *447:C 4.98399e-06
13 *87:10 *474:A 2.32004e-05
14 *87:10 *475:A 7.00074e-05
15 *87:10 *100:20 0.000359897
16 *87:21 *408:B1 0.000131184
17 *87:21 *409:B1 4.08664e-05
18 *87:21 *413:B1 3.61695e-05
19 *87:21 *135:8 5.3304e-05
20 *87:34 *374:B 0.000238185
21 *376:B1 *87:10 5.3304e-05
22 *377:A1 *87:34 0.000158439
23 *411:B2 *87:34 6.16439e-05
24 *84:10 *87:10 4.96264e-05
25 *84:18 *87:34 0.000121262
26 *85:23 *87:34 0.000215791
*RES
1 *376:Y *87:10 44.1729 
2 *87:10 *87:12 15 
3 *87:12 *408:A2 23 
4 *87:12 *87:21 3.50071 
5 *87:21 *409:A2 24.0979 
6 *87:21 *87:34 36.4836 
7 *87:34 *377:A2 23 
*END

*D_NET *88 0.00404191
*CONN
*I *487:A I *D sky130_fd_sc_hd__buf_2
*I *414:A2 I *D sky130_fd_sc_hd__o21a_2
*I *381:A3 I *D sky130_fd_sc_hd__a31o_4
*I *413:A2 I *D sky130_fd_sc_hd__a21oi_2
*I *377:X O *D sky130_fd_sc_hd__a21o_4
*CAP
1 *487:A 0
2 *414:A2 0
3 *381:A3 0.000238708
4 *413:A2 2.16905e-05
5 *377:X 0.000469865
6 *88:54 0.00016189
7 *88:29 0.000305588
8 *88:14 0.00035076
9 *88:12 0.000570165
10 *381:A3 *415:A3 1.24376e-05
11 *413:A2 *120:6 0.000100061
12 *413:A2 *151:43 0.000100061
13 *88:12 *415:A2 6.48224e-06
14 *88:12 *475:A 0
15 *88:12 *146:10 0.000337514
16 *88:14 *412:A 5.86204e-05
17 *88:14 *475:A 0
18 *88:14 *146:10 1.13786e-05
19 *88:29 *412:A 5.56164e-05
20 *88:29 *415:A3 3.88766e-05
21 *88:29 *475:A 0
22 *88:29 *120:6 0.000396876
23 *88:29 *121:10 0.000313905
24 *88:54 *381:A2 1.5769e-05
25 *88:54 *91:21 1.02387e-05
26 *368:A *88:12 0
27 *413:A1 *88:29 0
28 *414:A1 *381:A3 5.50049e-05
29 *418:A1 *88:54 0
30 *25:10 *88:12 0.000164291
31 *79:19 *88:54 9.64022e-05
32 *80:8 *88:54 9.64022e-05
33 *82:14 *88:54 5.3304e-05
*RES
1 *377:X *88:12 48.8025 
2 *88:12 *88:14 1.72964 
3 *88:14 *413:A2 39.0979 
4 *88:14 *88:29 21.235 
5 *88:29 *381:A3 24.595 
6 *88:29 *414:A2 23 
7 *381:A3 *88:54 42.06 
8 *88:54 *487:A 38 
*END

*D_NET *89 0.000910369
*CONN
*I *381:B1 I *D sky130_fd_sc_hd__a31o_4
*I *378:Y O *D sky130_fd_sc_hd__a21oi_2
*CAP
1 *381:B1 0.000146646
2 *378:Y 0.000106781
3 *89:10 0.000253426
4 *381:B1 *381:A2 3.16665e-05
5 *381:B1 *91:6 5.47927e-05
6 *381:B1 *92:12 5.50049e-05
7 *89:10 *91:21 5.61414e-05
8 *89:10 *92:12 0.000139657
9 *423:B1 *89:10 5.50049e-05
10 *60:10 *89:10 1.12487e-05
*RES
1 *378:Y *89:10 40.8793 
2 *89:10 *381:B1 41.0243 
*END

*D_NET *90 0.00223267
*CONN
*I *380:A I *D sky130_fd_sc_hd__inv_2
*I *422:B2 I *D sky130_fd_sc_hd__o221a_2
*I *379:Y O *D sky130_fd_sc_hd__xnor2_2
*CAP
1 *380:A 0.000228566
2 *422:B2 0
3 *379:Y 0.000144578
4 *90:12 0.000430907
5 *90:6 0.000804051
6 *90:12 *366:B 0
7 *90:12 *140:16 1.94418e-05
8 *90:12 *157:10 0.000178022
9 *90:12 *157:16 0.000213073
10 *378:A2 *90:12 0
11 *379:A *380:A 0.000135952
12 *455:A *90:12 3.49583e-05
13 *35:10 *90:12 4.31185e-05
14 *77:17 *90:12 0
*RES
1 *379:Y *90:6 25.5271 
2 *90:6 *90:12 38.2443 
3 *90:12 *422:B2 23 
4 *90:6 *380:A 27.9714 
*END

*D_NET *91 0.0021509
*CONN
*I *420:A I *D sky130_fd_sc_hd__or3_2
*I *381:A2 I *D sky130_fd_sc_hd__a31o_4
*I *380:Y O *D sky130_fd_sc_hd__inv_2
*CAP
1 *420:A 0
2 *381:A2 0.000256986
3 *380:Y 0.000222955
4 *91:21 0.000257286
5 *91:6 0.000737227
6 *91:6 *92:12 1.32939e-05
7 *91:21 *92:12 0
8 *369:A1 *91:21 0
9 *379:A *91:6 9.84851e-05
10 *381:B1 *381:A2 3.16665e-05
11 *381:B1 *91:6 5.47927e-05
12 *419:A2 *91:21 2.76611e-06
13 *32:10 *91:21 4.3407e-05
14 *34:8 *91:21 2.79004e-05
15 *60:10 *91:21 0
16 *80:8 *91:21 0.000272321
17 *82:14 *381:A2 4.9662e-05
18 *88:54 *381:A2 1.5769e-05
19 *88:54 *91:21 1.02387e-05
20 *89:10 *91:21 5.61414e-05
*RES
1 *380:Y *91:6 26.48 
2 *91:6 *381:A2 26.5007 
3 *91:6 *91:21 36.4836 
4 *91:21 *420:A 23 
*END

*D_NET *92 0.00499784
*CONN
*I *383:A1 I *D sky130_fd_sc_hd__a2111o_2
*I *382:B I *D sky130_fd_sc_hd__and2_2
*I *424:A2 I *D sky130_fd_sc_hd__o21ai_2
*I *381:X O *D sky130_fd_sc_hd__a31o_4
*CAP
1 *383:A1 0.000257455
2 *382:B 2.77218e-05
3 *424:A2 0
4 *381:X 0.000613532
5 *92:23 0.00037746
6 *92:14 0.000357581
7 *92:12 0.000878829
8 *383:A1 *99:38 5.97612e-05
9 *383:A1 *159:43 0.000397734
10 *92:14 *93:8 0.000410333
11 *92:14 *99:23 0.000337644
12 *92:14 *99:38 6.12484e-05
13 *92:23 *93:8 0.000165483
14 *92:23 *99:38 0.000232106
15 *92:23 *159:43 3.36638e-05
16 *381:B1 *92:12 5.50049e-05
17 *419:A2 *92:12 0
18 *421:B1 *92:12 0
19 *440:A2 *382:B 5.3304e-05
20 *455:A *92:12 0
21 *34:8 *92:12 8.62876e-05
22 *46:14 *383:A1 0.000218952
23 *60:10 *92:12 0.000194327
24 *76:16 *382:B 2.64616e-05
25 *89:10 *92:12 0.000139657
26 *91:6 *92:12 1.32939e-05
27 *91:21 *92:12 0
*RES
1 *381:X *92:12 49.5482 
2 *92:12 *92:14 6.65964 
3 *92:14 *424:A2 38 
4 *92:14 *92:23 3.31429 
5 *92:23 *382:B 38.6214 
6 *92:23 *383:A1 44.0486 
*END

*D_NET *93 0.00267729
*CONN
*I *432:A2 I *D sky130_fd_sc_hd__o31a_2
*I *431:A2 I *D sky130_fd_sc_hd__o21ai_2
*I *425:A I *D sky130_fd_sc_hd__nor2_2
*I *382:X O *D sky130_fd_sc_hd__and2_2
*CAP
1 *432:A2 0
2 *431:A2 0
3 *425:A 0
4 *382:X 0.000392916
5 *93:35 0.000124592
6 *93:22 0.000180843
7 *93:8 0.000336665
8 *93:8 *159:43 0.000114092
9 *93:35 *149:18 4.81913e-05
10 *431:A1 *93:35 0.000185755
11 *440:A2 *93:22 0.000181125
12 *440:A2 *93:35 9.41704e-05
13 *37:8 *93:8 0.000173982
14 *43:19 *93:35 0.000111852
15 *62:67 *93:8 0
16 *74:17 *93:35 1.01436e-05
17 *76:16 *93:22 9.91798e-05
18 *76:16 *93:35 4.79641e-05
19 *92:14 *93:8 0.000410333
20 *92:23 *93:8 0.000165483
*RES
1 *382:X *93:8 45.8921 
2 *93:8 *425:A 38 
3 *382:X *93:22 25.0507 
4 *93:22 *431:A2 23 
5 *93:22 *93:35 33.7079 
6 *93:35 *432:A2 23 
*END

*D_NET *94 0.0034941
*CONN
*I *486:A I *D sky130_fd_sc_hd__buf_2
*I *397:B I *D sky130_fd_sc_hd__and3_4
*I *383:X O *D sky130_fd_sc_hd__a2111o_2
*CAP
1 *486:A 2.30556e-05
2 *397:B 0.000147033
3 *383:X 0.000395427
4 *94:16 0.000715301
5 *94:10 0.000940638
6 *397:B *154:10 0.000267173
7 *359:A1 *94:16 5.40241e-05
8 *359:A2 *94:16 1.59071e-05
9 *359:B1_N *94:16 3.85311e-05
10 *49:27 *94:10 3.83778e-05
11 *55:10 *94:10 3.76761e-05
12 *59:14 *94:16 0.000139368
13 *62:71 *94:10 0.000484545
14 *66:8 *94:16 5.50049e-05
15 *70:6 *397:B 8.84422e-05
16 *70:6 *94:16 1.83618e-05
17 *70:14 *397:B 3.52383e-05
*RES
1 *383:X *94:10 44.5871 
2 *94:10 *94:16 22.7886 
3 *94:16 *397:B 26.9564 
4 *94:16 *486:A 23.4971 
*END

*D_NET *95 0.000251132
*CONN
*I *385:B I *D sky130_fd_sc_hd__xnor2_2
*I *384:Y O *D sky130_fd_sc_hd__xnor2_2
*CAP
1 *385:B 0
2 *384:Y 0.000115782
3 *95:8 0.000115782
4 *95:8 *96:10 0
5 *95:8 *148:10 0
6 *18:11 *95:8 1.95685e-05
*RES
1 *384:Y *95:8 40.2579 
2 *95:8 *385:B 38 
*END

*D_NET *96 0.00225973
*CONN
*I *386:A I *D sky130_fd_sc_hd__inv_2
*I *390:B1 I *D sky130_fd_sc_hd__a211o_2
*I *385:Y O *D sky130_fd_sc_hd__xnor2_2
*CAP
1 *386:A 0
2 *390:B1 0
3 *385:Y 0.000189187
4 *96:16 0.00048155
5 *96:10 0.000670737
6 *96:10 *385:A 2.72257e-05
7 *96:10 *103:16 1.83564e-05
8 *96:16 *97:16 0.000189909
9 *96:16 *100:58 0.000178661
10 *96:16 *103:16 0.000330079
11 *96:16 *144:23 0.000163352
12 *62:85 *96:10 0
13 *70:14 *96:16 1.06693e-05
14 *95:8 *96:10 0
*RES
1 *385:Y *96:10 41.0036 
2 *96:10 *96:16 27.035 
3 *96:16 *390:B1 23 
4 *96:10 *386:A 38 
*END

*D_NET *97 0.00173246
*CONN
*I *395:B2 I *D sky130_fd_sc_hd__a2bb2o_2
*I *396:A I *D sky130_fd_sc_hd__nor2_2
*I *386:Y O *D sky130_fd_sc_hd__inv_2
*CAP
1 *395:B2 0
2 *396:A 0
3 *386:Y 5.91295e-05
4 *97:16 0.000359913
5 *97:8 0.000419043
6 *97:8 *105:90 0.000130844
7 *97:8 *131:35 0.000150773
8 *97:16 *100:58 2.02872e-05
9 *97:16 *104:10 6.70361e-05
10 *97:16 *106:10 0
11 *97:16 *153:10 9.41704e-05
12 *70:14 *97:16 0.000241355
13 *96:16 *97:16 0.000189909
*RES
1 *386:Y *97:8 25.0714 
2 *97:8 *97:16 37.0014 
3 *97:16 *396:A 23 
4 *97:8 *395:B2 23 
*END

*D_NET *98 0.00113348
*CONN
*I *392:A2 I *D sky130_fd_sc_hd__a21o_2
*I *387:Y O *D sky130_fd_sc_hd__nor2_2
*CAP
1 *392:A2 0.000138908
2 *387:Y 0.000338574
3 *98:12 0.000477482
4 *392:A2 *392:B1 6.17437e-06
5 *98:12 *105:12 9.85586e-06
6 *98:12 *131:10 1.0092e-05
7 *98:12 *134:55 7.28792e-05
8 *98:12 *151:74 3.08153e-05
9 *98:12 *151:100 1.54184e-05
10 *98:12 *151:115 3.32783e-05
*RES
1 *387:Y *98:12 43.4893 
2 *98:12 *392:A2 40.2164 
*END

*D_NET *99 0.00621974
*CONN
*I *432:B1 I *D sky130_fd_sc_hd__o31a_2
*I *445:A1 I *D sky130_fd_sc_hd__a31o_2
*I *424:B1 I *D sky130_fd_sc_hd__o21ai_2
*I *419:A1 I *D sky130_fd_sc_hd__a21oi_2
*I *388:Y O *D sky130_fd_sc_hd__nor2_2
*CAP
1 *432:B1 0.000293396
2 *445:A1 0.000708673
3 *424:B1 0.000212924
4 *419:A1 0
5 *388:Y 1.82709e-05
6 *99:38 0.00123019
7 *99:23 0.000688828
8 *99:12 0.000181415
9 *99:6 0.000447468
10 *99:6 *149:26 5.5792e-05
11 *99:23 *149:26 0.000132734
12 *99:23 *152:10 2.51913e-05
13 *361:A *445:A1 9.74625e-05
14 *365:A *432:B1 0.000157781
15 *383:A1 *99:38 5.97612e-05
16 *428:B1 *424:B1 0.00016614
17 *432:A3 *432:B1 5.50106e-05
18 *435:A2 *432:B1 5.50106e-05
19 *435:B1 *432:B1 3.5082e-05
20 *435:B1 *445:A1 6.17437e-06
21 *441:C *445:A1 0.000139974
22 *445:A3 *445:A1 4.04494e-05
23 *445:B1 *445:A1 3.07986e-05
24 *43:19 *432:B1 0.000149735
25 *43:37 *432:B1 3.55641e-05
26 *43:37 *445:A1 3.11509e-05
27 *47:10 *445:A1 0.00014196
28 *47:10 *99:38 0
29 *58:8 *99:38 0
30 *62:43 *99:6 2.95423e-05
31 *62:43 *99:23 7.64944e-05
32 *72:6 *445:A1 4.79641e-05
33 *72:14 *445:A1 4.67488e-05
34 *76:31 *99:38 0.000191048
35 *92:14 *99:23 0.000337644
36 *92:14 *99:38 6.12484e-05
37 *92:23 *99:38 0.000232106
*RES
1 *388:Y *99:6 23.6214 
2 *99:6 *99:12 32.9621 
3 *99:12 *419:A1 23 
4 *99:6 *99:23 21.2971 
5 *99:23 *424:B1 41.0243 
6 *99:23 *99:38 20.7793 
7 *99:38 *445:A1 33.15 
8 *99:38 *432:B1 30.0429 
*END

*D_NET *100 0.00925144
*CONN
*I *420:B I *D sky130_fd_sc_hd__or3_2
*I *390:C1 I *D sky130_fd_sc_hd__a211o_2
*I *396:B I *D sky130_fd_sc_hd__nor2_2
*I *413:B1 I *D sky130_fd_sc_hd__a21oi_2
*I *408:B1 I *D sky130_fd_sc_hd__a21oi_2
*I *389:X O *D sky130_fd_sc_hd__or2_2
*CAP
1 *420:B 0
2 *390:C1 2.80435e-05
3 *396:B 0
4 *413:B1 7.10154e-05
5 *408:B1 0.00010499
6 *389:X 0
7 *100:78 0.000526664
8 *100:58 0.000456754
9 *100:46 0.00101048
10 *100:20 0.00054855
11 *100:16 0.00131885
12 *100:4 0.000947292
13 *408:B1 *409:B1 5.3304e-05
14 *408:B1 *117:8 1.22822e-05
15 *413:B1 *151:43 0.000185428
16 *100:16 *389:B 0.00018304
17 *100:16 *447:A 4.53082e-05
18 *100:16 *151:63 0.000137533
19 *100:16 *156:23 0.000584522
20 *100:20 *151:43 0.000250184
21 *100:20 *151:52 4.5153e-05
22 *100:46 *404:A2 0
23 *100:46 *406:A3 0.000162263
24 *100:46 *102:8 8.49626e-05
25 *100:46 *103:12 9.82347e-06
26 *100:46 *103:16 7.67334e-05
27 *100:46 *112:10 6.03323e-05
28 *100:46 *124:49 0.000199644
29 *100:46 *151:52 9.46758e-07
30 *100:46 *151:100 0
31 *100:58 *103:16 0
32 *100:58 *104:10 8.06804e-06
33 *100:58 *145:8 5.41385e-05
34 *100:58 *153:10 0.000135037
35 *100:78 *103:64 8.57577e-05
36 *408:A1 *408:B1 0.000169662
37 *408:A1 *413:B1 1.14154e-05
38 *420:C *100:78 3.71369e-05
39 *57:10 *100:16 0.000109352
40 *62:16 *100:16 9.66585e-05
41 *62:29 *100:78 0.000140875
42 *63:12 *100:78 8.52094e-06
43 *63:50 *100:78 6.5117e-06
44 *63:92 *100:46 0
45 *63:92 *100:58 0
46 *70:14 *100:58 0.000369939
47 *86:8 *100:16 2.23467e-05
48 *86:8 *100:20 0.000107977
49 *86:8 *100:46 5.77452e-05
50 *87:10 *100:20 0.000359897
51 *87:21 *408:B1 0.000131184
52 *87:21 *413:B1 3.61695e-05
53 *96:16 *100:58 0.000178661
54 *97:16 *100:58 2.02872e-05
*RES
1 *389:X *100:4 23 
2 *100:4 *100:16 27.0868 
3 *100:16 *100:20 23.7725 
4 *100:20 *408:B1 26.1693 
5 *100:20 *413:B1 25.5479 
6 *100:16 *100:46 26.0304 
7 *100:46 *100:58 39.9014 
8 *100:58 *396:B 23 
9 *100:46 *390:C1 23.4971 
10 *100:4 *100:78 37.7679 
11 *100:78 *420:B 23 
*END

*D_NET *101 0.00188283
*CONN
*I *398:D_N I *D sky130_fd_sc_hd__or4b_4
*I *390:X O *D sky130_fd_sc_hd__a211o_2
*CAP
1 *398:D_N 4.48894e-05
2 *390:X 0.000303646
3 *101:10 0.000348536
4 *398:D_N *398:B 5.67058e-05
5 *398:D_N *107:27 0.000141954
6 *101:10 *109:10 7.55388e-05
7 *101:10 *145:8 5.50106e-05
8 *101:10 *153:10 0.000339903
9 *101:10 *154:10 0.00049312
10 *18:11 *101:10 0
11 *70:14 *101:10 2.3529e-05
*RES
1 *390:X *101:10 46.1614 
2 *101:10 *398:D_N 39.5743 
*END

*D_NET *102 0.00113214
*CONN
*I *392:B1 I *D sky130_fd_sc_hd__a21o_2
*I *404:B1 I *D sky130_fd_sc_hd__o22a_2
*I *391:X O *D sky130_fd_sc_hd__and3b_2
*CAP
1 *392:B1 0.000113303
2 *404:B1 4.89536e-05
3 *391:X 0.000104299
4 *102:10 0.000162257
5 *102:8 0.000104299
6 *392:B1 *103:12 9.66668e-05
7 *392:B1 *111:22 7.0127e-05
8 *392:B1 *131:8 3.76959e-05
9 *404:B1 *111:22 7.48505e-05
10 *404:B1 *113:12 9.91548e-05
11 *404:B1 *131:8 2.193e-05
12 *102:8 *103:12 3.673e-05
13 *102:8 *151:100 5.75756e-06
14 *102:8 *151:115 6.49821e-05
15 *392:A2 *392:B1 6.17437e-06
16 *100:46 *102:8 8.49626e-05
*RES
1 *391:X *102:8 40.61 
2 *102:8 *102:10 15 
3 *102:10 *404:B1 24.5743 
4 *102:10 *392:B1 25.5271 
*END

*D_NET *103 0.0175491
*CONN
*I *433:B2 I *D sky130_fd_sc_hd__a2bb2o_2
*I *427:B1 I *D sky130_fd_sc_hd__a2bb2o_2
*I *419:B1 I *D sky130_fd_sc_hd__a21oi_2
*I *416:B1 I *D sky130_fd_sc_hd__a2bb2o_2
*I *411:B1 I *D sky130_fd_sc_hd__a2bb2o_2
*I *444:A1 I *D sky130_fd_sc_hd__a211o_2
*I *395:B1 I *D sky130_fd_sc_hd__a2bb2o_2
*I *392:X O *D sky130_fd_sc_hd__a21o_2
*CAP
1 *433:B2 2.73674e-05
2 *427:B1 7.70667e-05
3 *419:B1 2.18824e-05
4 *416:B1 5.08816e-05
5 *411:B1 0
6 *444:A1 9.6783e-06
7 *395:B1 9.02304e-05
8 *392:X 9.35456e-05
9 *103:80 0.000830518
10 *103:64 0.00160627
11 *103:56 0.00174849
12 *103:50 0.00146978
13 *103:48 0.00151097
14 *103:29 0.00153022
15 *103:16 0.00105413
16 *103:12 0.000629529
17 *395:B1 *105:90 8.01233e-05
18 *416:B1 *146:53 2.64616e-05
19 *433:B2 *433:A2_N 5.46706e-05
20 *103:12 *131:8 9.91548e-05
21 *103:12 *151:115 7.46869e-05
22 *103:16 *109:25 0.000222113
23 *103:16 *144:23 0.000161121
24 *103:16 *151:115 0.000209073
25 *103:29 *105:90 0.00019915
26 *103:48 *433:A1_N 2.42594e-05
27 *103:48 *433:A2_N 3.16665e-05
28 *103:48 *434:A3 1.41129e-05
29 *103:48 *159:23 1.55097e-05
30 *103:50 *433:A2_N 0.000167443
31 *103:50 *105:114 0.000601411
32 *103:56 *366:B 0.000228224
33 *103:56 *422:A1 1.61361e-05
34 *103:56 *477:A 7.48505e-05
35 *103:56 *105:114 1.01436e-05
36 *103:56 *105:140 1.59094e-05
37 *103:56 *141:8 1.18379e-05
38 *103:56 *157:6 8.8999e-06
39 *103:64 *389:B 1.358e-05
40 *103:80 *416:A2_N 0.000213275
41 *103:80 *417:A3 0.000237288
42 *103:80 *417:B2 4.06407e-05
43 *103:80 *118:12 0.000306338
44 *103:80 *146:25 4.41027e-06
45 *103:80 *146:53 7.55609e-05
46 *358:B *103:48 2.32004e-05
47 *392:B1 *103:12 9.66668e-05
48 *411:B2 *103:80 3.91386e-05
49 *418:A1 *103:80 2.22183e-05
50 *433:B1 *103:48 8.06804e-06
51 *434:B1 *103:48 0.00010253
52 *434:C1 *103:48 3.71251e-05
53 *444:B1 *444:A1 5.90675e-06
54 *444:B1 *103:29 0.000457776
55 *444:B1 *103:48 4.96717e-05
56 *7:11 *103:56 0.000263565
57 *8:11 *103:50 0
58 *28:10 *103:50 3.47879e-05
59 *28:10 *103:56 0.000107267
60 *33:10 *103:56 0.000173124
61 *33:10 *103:64 1.09834e-05
62 *46:14 *103:48 0.000140259
63 *59:10 *103:29 0.000121072
64 *59:10 *103:48 0.00021126
65 *61:10 *103:80 5.67058e-05
66 *62:29 *103:64 0.000114959
67 *62:29 *103:80 2.93111e-05
68 *62:85 *103:16 0.000122634
69 *63:8 *103:64 5.5792e-05
70 *63:12 *103:64 0.000143993
71 *63:20 *416:B1 0.000137651
72 *63:20 *103:80 1.31467e-05
73 *65:8 *103:29 4.96303e-05
74 *65:36 *103:29 7.87147e-05
75 *73:14 *103:56 0.000181809
76 *75:10 *103:50 0
77 *76:53 *103:50 0.000114074
78 *96:10 *103:16 1.83564e-05
79 *96:16 *103:16 0.000330079
80 *100:46 *103:12 9.82347e-06
81 *100:46 *103:16 7.67334e-05
82 *100:58 *103:16 0
83 *100:78 *103:64 8.57577e-05
84 *102:8 *103:12 3.673e-05
*RES
1 *392:X *103:12 40.7446 
2 *103:12 *103:16 29.4068 
3 *103:16 *395:B1 24.5743 
4 *103:16 *103:29 11.1443 
5 *103:29 *444:A1 23.4971 
6 *103:29 *103:48 32.6279 
7 *103:48 *103:50 10.3571 
8 *103:50 *103:56 36.315 
9 *103:56 *103:64 27.1593 
10 *103:64 *103:80 30.0386 
11 *103:80 *411:B1 23 
12 *103:64 *416:B1 39.5743 
13 *103:56 *419:B1 23.4971 
14 *103:50 *427:B1 39.0979 
15 *103:48 *433:B2 38.8493 
*END

*D_NET *104 0.0023139
*CONN
*I *398:A I *D sky130_fd_sc_hd__or4b_4
*I *393:X O *D sky130_fd_sc_hd__a31o_2
*CAP
1 *398:A 0
2 *393:X 0.000858042
3 *104:10 0.000858042
4 *104:10 *107:12 8.10857e-05
5 *104:10 *151:115 9.41704e-05
6 *104:10 *153:10 1.21972e-05
7 *104:10 *161:16 0.000168744
8 *18:11 *104:10 0.000166513
9 *97:16 *104:10 6.70361e-05
10 *100:58 *104:10 8.06804e-06
*RES
1 *393:X *104:10 49.9314 
2 *104:10 *398:A 38 
*END

*D_NET *105 0.0205896
*CONN
*I *433:A2_N I *D sky130_fd_sc_hd__a2bb2o_2
*I *427:A2_N I *D sky130_fd_sc_hd__a2bb2o_2
*I *422:A2 I *D sky130_fd_sc_hd__o221a_2
*I *443:B I *D sky130_fd_sc_hd__nor2_2
*I *395:A2_N I *D sky130_fd_sc_hd__a2bb2o_2
*I *416:A2_N I *D sky130_fd_sc_hd__a2bb2o_2
*I *411:A2_N I *D sky130_fd_sc_hd__a2bb2o_2
*I *405:B I *D sky130_fd_sc_hd__nor2_2
*I *394:Y O *D sky130_fd_sc_hd__nand3b_2
*CAP
1 *433:A2_N 0.000135359
2 *427:A2_N 0
3 *422:A2 0
4 *443:B 0
5 *395:A2_N 0
6 *416:A2_N 0.000409061
7 *411:A2_N 2.10745e-05
8 *405:B 0
9 *394:Y 0.000913754
10 *105:140 0.000323991
11 *105:130 0.000689156
12 *105:114 0.000638069
13 *105:108 0.000962403
14 *105:99 0.000565782
15 *105:90 0.000999082
16 *105:74 0.00162822
17 *105:72 0.00100469
18 *105:43 0.00101715
19 *105:24 0.000652848
20 *105:12 0.00176642
21 *411:A2_N *135:27 2.93747e-05
22 *416:A2_N *417:A3 2.46906e-05
23 *416:A2_N *417:B2 0.000169797
24 *416:A2_N *118:12 8.48502e-06
25 *416:A2_N *135:27 2.64616e-05
26 *416:A2_N *135:53 7.94511e-05
27 *416:A2_N *146:25 1.05846e-05
28 *105:12 *151:100 2.26406e-05
29 *105:24 *405:A 9.0404e-05
30 *105:24 *124:23 9.28078e-06
31 *105:24 *134:27 2.29192e-05
32 *105:24 *148:16 0.000223088
33 *105:24 *162:20 4.80423e-06
34 *105:43 *404:A1 2.96541e-05
35 *105:43 *406:A3 6.5117e-06
36 *105:43 *115:8 6.59456e-05
37 *105:43 *119:8 0
38 *105:43 *124:36 2.05503e-05
39 *105:43 *124:49 7.6774e-06
40 *105:43 *135:23 6.25829e-05
41 *105:43 *137:10 2.14998e-05
42 *105:43 *148:26 2.99613e-05
43 *105:43 *151:43 3.0065e-05
44 *105:43 *151:52 3.43952e-05
45 *105:43 *156:23 0.00018584
46 *105:43 *162:10 4.71236e-05
47 *105:43 *162:37 0.000110267
48 *105:72 *134:68 0.000124023
49 *105:90 *131:35 0.000264217
50 *105:108 *357:A_N 5.50106e-05
51 *105:130 *427:A1_N 1.70074e-05
52 *105:130 *141:8 4.41821e-06
53 *105:130 *158:21 5.52259e-06
54 *105:130 *158:34 6.68793e-05
55 *105:140 *422:A1 1.9054e-05
56 *105:140 *140:16 3.35883e-06
57 *105:140 *149:70 7.08123e-05
58 *105:140 *157:6 5.3304e-05
59 *105:140 *157:10 3.46013e-05
60 *105:140 *158:21 0.000367422
61 *357:B *105:108 9.75779e-05
62 *358:A_N *105:90 0
63 *359:B1_N *105:108 0.00035673
64 *360:A_N *105:108 4.34745e-05
65 *383:B1 *105:74 0
66 *395:B1 *105:90 8.01233e-05
67 *411:B2 *411:A2_N 2.93845e-05
68 *411:B2 *416:A2_N 4.21281e-05
69 *428:A1 *105:130 9.41704e-05
70 *431:B1 *105:130 8.82787e-06
71 *433:B1 *433:A2_N 5.3304e-05
72 *433:B2 *433:A2_N 5.46706e-05
73 *448:D1 *105:72 0.00015148
74 *462:A *105:24 2.7781e-05
75 *462:A *105:43 4.67055e-05
76 *33:10 *105:140 1.1258e-05
77 *39:10 *105:130 6.12484e-05
78 *39:10 *105:140 0.000313135
79 *40:10 *105:130 1.33248e-05
80 *42:14 *433:A2_N 0.000237534
81 *42:14 *105:114 0.000207798
82 *47:10 *105:74 0
83 *49:27 *105:74 7.66342e-05
84 *49:27 *105:90 0.000179769
85 *50:8 *105:74 2.26489e-05
86 *54:8 *105:90 0.000114074
87 *59:10 *105:90 0.000303724
88 *62:103 *105:74 0
89 *63:20 *416:A2_N 0.000228846
90 *63:50 *105:74 0.000162263
91 *63:78 *105:74 0.000508816
92 *65:8 *105:90 4.96303e-05
93 *65:36 *105:90 4.03352e-05
94 *66:8 *105:108 0.000314157
95 *71:10 *105:108 0.000349015
96 *73:14 *105:114 0.000376252
97 *73:14 *105:130 0.000101784
98 *83:23 *105:43 0
99 *84:18 *416:A2_N 0.000264564
100 *97:8 *105:90 0.000130844
101 *98:12 *105:12 9.85586e-06
102 *103:29 *105:90 0.00019915
103 *103:48 *433:A2_N 3.16665e-05
104 *103:50 *433:A2_N 0.000167443
105 *103:50 *105:114 0.000601411
106 *103:56 *105:114 1.01436e-05
107 *103:56 *105:140 1.59094e-05
108 *103:80 *416:A2_N 0.000213275
*RES
1 *394:Y *105:12 47.2357 
2 *105:12 *105:24 28.0027 
3 *105:24 *405:B 23 
4 *105:12 *105:43 35.4182 
5 *105:43 *411:A2_N 23.6214 
6 *105:43 *416:A2_N 34.2893 
7 *394:Y *105:72 45.2914 
8 *105:72 *105:74 13.3504 
9 *105:74 *105:90 34.1296 
10 *105:90 *395:A2_N 23 
11 *105:74 *105:99 15.3211 
12 *105:99 *443:B 23 
13 *105:99 *105:108 29.4379 
14 *105:108 *105:114 23.8657 
15 *105:114 *105:130 37.1257 
16 *105:130 *105:140 38.3064 
17 *105:140 *422:A2 23 
18 *105:114 *427:A2_N 23 
19 *105:108 *433:A2_N 42.4121 
*END

*D_NET *106 0.000632556
*CONN
*I *398:C I *D sky130_fd_sc_hd__or4b_4
*I *395:X O *D sky130_fd_sc_hd__a2bb2o_2
*CAP
1 *398:C 0
2 *395:X 0.000179301
3 *106:10 0.000179301
4 *106:10 *131:35 0.000185434
5 *18:11 *106:10 8.85189e-05
6 *97:16 *106:10 0
*RES
1 *395:X *106:10 41.2521 
2 *106:10 *398:C 38 
*END

*D_NET *107 0.00283802
*CONN
*I *397:C I *D sky130_fd_sc_hd__and3_4
*I *402:A I *D sky130_fd_sc_hd__and3_4
*I *396:Y O *D sky130_fd_sc_hd__nor2_2
*CAP
1 *397:C 0
2 *402:A 0
3 *396:Y 0
4 *107:27 0.00031522
5 *107:12 0.000349498
6 *107:4 0.000664718
7 *107:12 *110:10 9.98891e-05
8 *107:12 *151:12 9.11394e-05
9 *107:12 *161:16 0.000169683
10 *107:27 *398:B 2.18506e-05
11 *107:27 *109:10 0.000175933
12 *107:27 *154:10 9.41704e-05
13 *398:D_N *107:27 0.000141954
14 *18:11 *107:12 0.000616965
15 *18:11 *107:27 0
16 *70:14 *107:27 1.59094e-05
17 *104:10 *107:12 8.10857e-05
*RES
1 *396:Y *107:4 23 
2 *107:4 *107:12 40.7714 
3 *107:12 *402:A 23 
4 *107:4 *107:27 36.5871 
5 *107:27 *397:C 23 
*END

*D_NET *108 0.000452223
*CONN
*I *398:B I *D sky130_fd_sc_hd__or4b_4
*I *397:X O *D sky130_fd_sc_hd__and3_4
*CAP
1 *398:B 0.000154245
2 *397:X 0.000154245
3 *398:B *109:10 6.51763e-05
4 *398:D_N *398:B 5.67058e-05
5 *107:27 *398:B 2.18506e-05
*RES
1 *397:X *398:B 49.5007 
*END

*D_NET *109 0.00394922
*CONN
*I *401:A1 I *D sky130_fd_sc_hd__a21o_2
*I *485:A I *D sky130_fd_sc_hd__buf_6
*I *400:B1 I *D sky130_fd_sc_hd__o21a_4
*I *398:X O *D sky130_fd_sc_hd__or4b_4
*CAP
1 *401:A1 0.000125245
2 *485:A 0
3 *400:B1 0
4 *398:X 0.000614394
5 *109:25 6.76233e-05
6 *109:19 0.000383718
7 *109:12 0.00019085
8 *109:10 0.000614394
9 *401:A1 *161:42 5.85987e-05
10 *109:10 *153:10 0.000191166
11 *109:19 *480:A 0.000133734
12 *109:19 *144:23 4.9662e-05
13 *109:19 *161:42 2.79662e-05
14 *109:25 *151:115 0.000222113
15 *398:B *109:10 6.51763e-05
16 *401:A2 *401:A1 3.85196e-05
17 *18:11 *109:10 0
18 *63:84 *401:A1 0.000266148
19 *63:84 *109:19 0.000426329
20 *101:10 *109:10 7.55388e-05
21 *103:16 *109:25 0.000222113
22 *107:27 *109:10 0.000175933
*RES
1 *398:X *109:10 47.6321 
2 *109:10 *109:12 15 
3 *109:12 *400:B1 23 
4 *109:12 *109:19 4.90929 
5 *109:19 *109:25 32.9621 
6 *109:25 *485:A 23 
7 *109:19 *401:A1 26.5007 
*END

*D_NET *110 0.000785381
*CONN
*I *402:B I *D sky130_fd_sc_hd__and3_4
*I *399:Y O *D sky130_fd_sc_hd__nand2_2
*CAP
1 *402:B 0
2 *399:Y 0.0001881
3 *110:10 0.0001881
4 *110:10 *145:8 7.28721e-05
5 *110:10 *151:12 0.000227387
6 *18:11 *110:10 9.03122e-06
7 *107:12 *110:10 9.98891e-05
*RES
1 *399:Y *110:10 43.0129 
2 *110:10 *402:B 38 
*END

*D_NET *111 0.00281847
*CONN
*I *402:C I *D sky130_fd_sc_hd__and3_4
*I *401:X O *D sky130_fd_sc_hd__a21o_2
*CAP
1 *402:C 0
2 *401:X 0.000129857
3 *111:22 0.000614079
4 *111:8 0.000743936
5 *111:8 *131:10 0.000348465
6 *111:8 *151:115 0.000345304
7 *111:22 *404:A1 5.76359e-05
8 *111:22 *113:12 0.000434218
9 *392:B1 *111:22 7.0127e-05
10 *404:B1 *111:22 7.48505e-05
*RES
1 *401:X *111:8 42.7229 
2 *111:8 *111:22 27.76 
3 *111:22 *402:C 23 
*END

*D_NET *112 0.00175542
*CONN
*I *404:B2 I *D sky130_fd_sc_hd__o22a_2
*I *403:Y O *D sky130_fd_sc_hd__a221oi_2
*CAP
1 *404:B2 0
2 *403:Y 0.000541165
3 *112:10 0.000541165
4 *112:10 *404:A2 6.03323e-05
5 *112:10 *405:A 2.02872e-05
6 *112:10 *132:51 0.000188526
7 *112:10 *134:27 0.000317604
8 *112:10 *134:31 2.60063e-05
9 *100:46 *112:10 6.03323e-05
*RES
1 *403:Y *112:10 46.7207 
2 *112:10 *404:B2 38 
*END

*D_NET *113 0.00277733
*CONN
*I *407:A1 I *D sky130_fd_sc_hd__o32a_2
*I *404:X O *D sky130_fd_sc_hd__o22a_2
*CAP
1 *407:A1 0.000176015
2 *404:X 0.000413834
3 *113:12 0.000589849
4 *407:A1 *134:27 0.000265406
5 *407:A1 *151:12 0.000167522
6 *407:A1 *151:14 0.00021341
7 *113:12 *404:A1 0.000102971
8 *113:12 *131:8 0.00031495
9 *404:B1 *113:12 9.91548e-05
10 *111:22 *113:12 0.000434218
*RES
1 *404:X *113:12 46.8864 
2 *113:12 *407:A1 43.075 
*END

*D_NET *114 0.000733182
*CONN
*I *407:A2 I *D sky130_fd_sc_hd__o32a_2
*I *405:Y O *D sky130_fd_sc_hd__nor2_2
*CAP
1 *407:A2 0.000108761
2 *405:Y 0.000104254
3 *114:8 0.000213016
4 *407:A2 *137:10 0.000137525
5 *114:8 *148:16 1.97402e-05
6 *19:13 *407:A2 0.000149886
7 *19:13 *114:8 0
*RES
1 *405:Y *114:8 40.2579 
2 *114:8 *407:A2 41.0036 
*END

*D_NET *115 0.00131918
*CONN
*I *407:A3 I *D sky130_fd_sc_hd__o32a_2
*I *406:X O *D sky130_fd_sc_hd__a31o_2
*CAP
1 *407:A3 0.00014165
2 *406:X 0.000104959
3 *115:8 0.000246609
4 *407:A3 *132:30 5.3304e-05
5 *407:A3 *134:8 2.20564e-05
6 *407:A3 *137:10 0.000308635
7 *115:8 *137:10 0.00018292
8 *462:A *115:8 4.67055e-05
9 *19:13 *407:A3 9.06073e-05
10 *63:92 *407:A3 5.5792e-05
11 *105:43 *115:8 6.59456e-05
*RES
1 *406:X *115:8 40.61 
2 *115:8 *407:A3 41.9564 
*END

*D_NET *116 0.000459756
*CONN
*I *409:B1 I *D sky130_fd_sc_hd__o21a_2
*I *408:Y O *D sky130_fd_sc_hd__a21oi_2
*CAP
1 *409:B1 7.44252e-05
2 *408:Y 7.44252e-05
3 *409:B1 *117:8 5.10686e-05
4 *409:B1 *135:8 4.95081e-05
5 *408:A1 *409:B1 2.02872e-05
6 *408:B1 *409:B1 5.3304e-05
7 *409:A2 *409:B1 9.58714e-05
8 *87:21 *409:B1 4.08664e-05
*RES
1 *408:Y *409:B1 48.5271 
*END

*D_NET *117 0.00344809
*CONN
*I *412:A I *D sky130_fd_sc_hd__or3_2
*I *409:X O *D sky130_fd_sc_hd__o21a_2
*CAP
1 *412:A 0.000394942
2 *409:X 0.000768317
3 *117:8 0.00116326
4 *412:A *367:B 0
5 *412:A *412:B 0
6 *412:A *118:12 0
7 *412:A *146:10 4.6318e-06
8 *412:A *146:21 0.00010663
9 *412:A *156:23 0
10 *117:8 *135:8 8.08139e-06
11 *117:8 *151:43 0.000576278
12 *408:A1 *117:8 0.000221084
13 *408:B1 *117:8 1.22822e-05
14 *409:B1 *117:8 5.10686e-05
15 *63:20 *412:A 2.72789e-05
16 *88:14 *412:A 5.86204e-05
17 *88:29 *412:A 5.56164e-05
*RES
1 *409:X *117:8 49.5793 
2 *117:8 *412:A 44.4836 
*END

*D_NET *118 0.00339483
*CONN
*I *412:B I *D sky130_fd_sc_hd__or3_2
*I *410:X O *D sky130_fd_sc_hd__o211a_2
*CAP
1 *412:B 0.000442939
2 *410:X 0.00071633
3 *118:12 0.00115927
4 *412:B *447:C 2.41326e-05
5 *412:B *475:A 5.11935e-06
6 *412:B *135:53 0.000153784
7 *412:B *138:6 0.000102389
8 *412:B *138:33 1.0092e-05
9 *118:12 *410:B1 0.000161075
10 *118:12 *410:C1 0
11 *118:12 *475:A 0.000100195
12 *118:12 *121:10 6.16531e-05
13 *118:12 *135:27 5.38297e-06
14 *411:B2 *118:12 0.000137651
15 *412:A *412:B 0
16 *412:A *118:12 0
17 *416:A2_N *118:12 8.48502e-06
18 *103:80 *118:12 0.000306338
*RES
1 *410:X *118:12 49.0718 
2 *118:12 *412:B 44.7839 
*END

*D_NET *119 0.00216992
*CONN
*I *412:C I *D sky130_fd_sc_hd__or3_2
*I *411:X O *D sky130_fd_sc_hd__a2bb2o_2
*CAP
1 *412:C 0.000571557
2 *411:X 5.93271e-05
3 *119:8 0.000630884
4 *412:C *376:A1 1.14289e-05
5 *412:C *474:A 0.000355612
6 *412:C *138:6 4.77213e-05
7 *412:C *162:6 1.39431e-05
8 *376:B1 *412:C 2.89076e-05
9 *83:23 *119:8 8.85189e-05
10 *84:10 *412:C 0.000266148
11 *87:10 *412:C 9.58714e-05
12 *105:43 *119:8 0
*RES
1 *411:X *119:8 39.2014 
2 *119:8 *412:C 48.8129 
*END

*D_NET *120 0.00158088
*CONN
*I *414:B1 I *D sky130_fd_sc_hd__o21a_2
*I *413:Y O *D sky130_fd_sc_hd__a21oi_2
*CAP
1 *414:B1 0
2 *413:Y 0.000180974
3 *120:6 0.000180974
4 *120:6 *415:A3 0.000356252
5 *120:6 *121:10 4.03766e-05
6 *120:6 *122:10 0.000187692
7 *120:6 *151:43 0.000137671
8 *413:A2 *120:6 0.000100061
9 *88:29 *120:6 0.000396876
*RES
1 *413:Y *120:6 30.7679 
2 *120:6 *414:B1 23 
*END

*D_NET *121 0.00181372
*CONN
*I *417:A1 I *D sky130_fd_sc_hd__o32a_2
*I *414:X O *D sky130_fd_sc_hd__o21a_2
*CAP
1 *417:A1 0
2 *414:X 0.000520318
3 *121:10 0.000520318
4 *121:10 *475:A 3.62219e-05
5 *121:10 *122:10 0.000320924
6 *88:29 *121:10 0.000313905
7 *118:12 *121:10 6.16531e-05
8 *120:6 *121:10 4.03766e-05
*RES
1 *414:X *121:10 46.2443 
2 *121:10 *417:A1 38 
*END

*D_NET *122 0.00085392
*CONN
*I *417:A2 I *D sky130_fd_sc_hd__o32a_2
*I *415:X O *D sky130_fd_sc_hd__a31o_2
*CAP
1 *417:A2 0
2 *415:X 0.000167533
3 *122:10 0.000167533
4 *122:10 *475:A 1.02387e-05
5 *120:6 *122:10 0.000187692
6 *121:10 *122:10 0.000320924
*RES
1 *415:X *122:10 42.3086 
2 *122:10 *417:A2 38 
*END

*D_NET *123 0.000580559
*CONN
*I *417:A3 I *D sky130_fd_sc_hd__o32a_2
*I *416:X O *D sky130_fd_sc_hd__a2bb2o_2
*CAP
1 *417:A3 6.48269e-05
2 *416:X 6.48269e-05
3 *417:A3 *417:B2 0.000188927
4 *416:A2_N *417:A3 2.46906e-05
5 *103:80 *417:A3 0.000237288
*RES
1 *416:X *417:A3 49.0243 
*END

*D_NET *124 0.00444658
*CONN
*I *405:A I *D sky130_fd_sc_hd__nor2_2
*I *375:B I *D sky130_fd_sc_hd__nand2_2
*I *406:A3 I *D sky130_fd_sc_hd__a31o_2
*I *404:A2 I *D sky130_fd_sc_hd__o22a_2
*I *403:B2 I *D sky130_fd_sc_hd__a221oi_2
*I *407:B2 I *D sky130_fd_sc_hd__o32a_2
*I *452:X O *D sky130_fd_sc_hd__clkdlybuf4s25_1
*CAP
1 *405:A 0.000103434
2 *375:B 0
3 *406:A3 0.000137485
4 *404:A2 0.000210859
5 *403:B2 0.00012746
6 *407:B2 0
7 *452:X 0.000173688
8 *124:49 0.000362355
9 *124:36 0.000556521
10 *124:23 0.000287033
11 *124:10 0.000315904
12 *403:B2 *134:31 2.93104e-06
13 *404:A2 *404:A1 0
14 *405:A *134:27 5.58003e-05
15 *406:A3 *447:A 7.79323e-05
16 *406:A3 *151:52 3.46013e-05
17 *406:A3 *151:63 5.3304e-05
18 *406:A3 *162:27 5.58003e-05
19 *406:A3 *162:37 4.60997e-05
20 *124:10 *410:A1 3.24843e-05
21 *124:10 *134:27 2.64503e-05
22 *124:10 *151:33 3.95707e-06
23 *124:10 *162:20 0.000130861
24 *124:23 *134:27 0.000105476
25 *124:23 *148:16 9.66668e-05
26 *124:23 *162:20 0.000185382
27 *124:36 *134:27 3.91654e-05
28 *124:36 *134:31 0.000142678
29 *124:36 *134:40 4.08664e-05
30 *124:36 *148:16 0.000297528
31 *124:49 *148:26 0.000111106
32 *23:10 *124:10 5.58003e-05
33 *63:92 *404:A2 0
34 *100:46 *404:A2 0
35 *100:46 *406:A3 0.000162263
36 *100:46 *124:49 0.000199644
37 *105:24 *405:A 9.0404e-05
38 *105:24 *124:23 9.28078e-06
39 *105:43 *406:A3 6.5117e-06
40 *105:43 *124:36 2.05503e-05
41 *105:43 *124:49 7.6774e-06
42 *112:10 *404:A2 6.03323e-05
43 *112:10 *405:A 2.02872e-05
*RES
1 *452:X *124:10 41.0036 
2 *124:10 *407:B2 38 
3 *124:10 *124:23 18.7079 
4 *124:23 *403:B2 23.4971 
5 *124:23 *124:36 18.8011 
6 *124:36 *404:A2 41.4904 
7 *124:36 *124:49 4.36036 
8 *124:49 *406:A3 41.8321 
9 *124:49 *375:B 38 
10 *403:B2 *405:A 48.0507 
*END

*D_NET *125 0.00136994
*CONN
*I *410:A2 I *D sky130_fd_sc_hd__o211a_2
*I *372:A I *D sky130_fd_sc_hd__xor2_2
*I *453:X O *D sky130_fd_sc_hd__clkdlybuf4s25_1
*CAP
1 *410:A2 0.00029561
2 *372:A 0.00023284
3 *453:X 0.000125693
4 *125:8 0.000654143
5 *372:A *372:B 0
6 *410:A2 *372:B 0
7 *410:A2 *410:C1 6.16531e-05
*RES
1 *453:X *125:8 39.5743 
2 *125:8 *372:A 42.2879 
3 *125:8 *410:A2 43.075 
*END

*D_NET *126 0.00239488
*CONN
*I *415:A3 I *D sky130_fd_sc_hd__a31o_2
*I *367:A I *D sky130_fd_sc_hd__xor2_2
*I *454:X O *D sky130_fd_sc_hd__clkdlybuf4s25_1
*CAP
1 *415:A3 0.000266711
2 *367:A 0.000272828
3 *454:X 0.00016724
4 *126:10 0.000706779
5 *415:A3 *367:B 4.27044e-05
6 *415:A3 *151:43 9.67842e-05
7 *368:A *415:A3 1.83667e-05
8 *368:A *126:10 0.00010609
9 *381:A3 *415:A3 1.24376e-05
10 *61:10 *415:A3 0.000108569
11 *62:29 *415:A3 0.000201241
12 *88:29 *415:A3 3.88766e-05
13 *120:6 *415:A3 0.000356252
*RES
1 *454:X *126:10 40.6514 
2 *126:10 *367:A 42.4536 
3 *126:10 *415:A3 46.2236 
*END

*D_NET *127 0.00226469
*CONN
*I *366:A I *D sky130_fd_sc_hd__xor2_2
*I *421:A3 I *D sky130_fd_sc_hd__a31oi_2
*I *455:X O *D sky130_fd_sc_hd__clkdlybuf4s25_1
*CAP
1 *366:A 0
2 *421:A3 2.34823e-05
3 *455:X 0.000442277
4 *127:21 0.000525023
5 *127:6 0.000990782
6 *127:6 *421:A2 6.24251e-05
7 *127:6 *149:70 5.50049e-05
8 *127:21 *366:B 0
9 *421:B1 *127:6 0.000151601
10 *26:8 *127:21 0
11 *35:10 *127:6 1.40958e-05
*RES
1 *455:X *127:6 30.7679 
2 *127:6 *421:A3 23.4971 
3 *127:6 *127:21 39.3421 
4 *127:21 *366:A 23 
*END

*D_NET *128 0.00169463
*CONN
*I *362:A I *D sky130_fd_sc_hd__xor2_2
*I *426:A3 I *D sky130_fd_sc_hd__a31o_2
*I *456:X O *D sky130_fd_sc_hd__clkdlybuf4s25_1
*CAP
1 *362:A 0.000287026
2 *426:A3 0
3 *456:X 0.000110088
4 *128:12 9.09326e-05
5 *128:6 0.000488046
6 *362:A *362:B 1.72e-05
7 *362:A *448:C1 0.000271404
8 *128:6 *448:C1 0.00011459
9 *128:12 *149:18 0.000138747
10 *128:12 *158:21 0.000165384
11 *73:10 *362:A 1.12084e-05
*RES
1 *456:X *128:6 24.5743 
2 *128:6 *128:12 32.2579 
3 *128:12 *426:A3 23 
4 *128:6 *362:A 27.9507 
*END

*D_NET *129 0.00176419
*CONN
*I *356:A I *D sky130_fd_sc_hd__xor2_2
*I *434:A3 I *D sky130_fd_sc_hd__a311o_2
*I *457:X O *D sky130_fd_sc_hd__clkdlybuf4s25_1
*CAP
1 *356:A 0
2 *434:A3 0.000240864
3 *457:X 0.000489758
4 *129:10 0.000730622
5 *434:A3 *149:10 0
6 *434:A3 *159:31 0.000135504
7 *358:A_N *434:A3 0
8 *358:B *434:A3 2.02872e-05
9 *430:A *434:A3 0
10 *434:B1 *434:A3 5.50106e-05
11 *16:9 *129:10 2.30292e-05
12 *46:14 *434:A3 5.50049e-05
13 *67:8 *434:A3 0
14 *103:48 *434:A3 1.41129e-05
*RES
1 *457:X *129:10 44.815 
2 *129:10 *434:A3 42.5364 
3 *129:10 *356:A 38 
*END

*D_NET *130 0.00103019
*CONN
*I *442:A3 I *D sky130_fd_sc_hd__a31o_2
*I *354:A I *D sky130_fd_sc_hd__xor2_2
*I *458:X O *D sky130_fd_sc_hd__clkdlybuf4s25_1
*CAP
1 *442:A3 4.06094e-05
2 *354:A 0.000162764
3 *458:X 0.000137903
4 *130:8 0.000341276
5 *354:A *150:24 0
6 *354:A *150:33 0
7 *442:A3 *385:A 7.87243e-05
8 *442:A3 *149:95 0.000102389
9 *62:85 *354:A 0.000166522
*RES
1 *458:X *130:8 40.2579 
2 *130:8 *354:A 41.3764 
3 *130:8 *442:A3 39.5743 
*END

*D_NET *131 0.00590035
*CONN
*I *384:B I *D sky130_fd_sc_hd__xnor2_2
*I *393:A3 I *D sky130_fd_sc_hd__a31o_2
*I *459:X O *D sky130_fd_sc_hd__clkdlybuf4s25_1
*CAP
1 *384:B 0
2 *393:A3 2.32701e-05
3 *459:X 0.000404999
4 *131:35 0.00084106
5 *131:10 0.00122946
6 *131:8 0.000770125
7 *393:A3 *151:115 5.3304e-05
8 *131:10 *151:115 0.000159831
9 *131:10 *161:50 0.000243587
10 *131:35 *384:A 2.93747e-05
11 *131:35 *395:A1_N 0.000204408
12 *131:35 *143:10 0
13 *131:35 *161:50 5.94125e-05
14 *359:A2 *131:35 0
15 *392:B1 *131:8 3.76959e-05
16 *404:B1 *131:8 2.193e-05
17 *56:10 *131:10 0
18 *59:29 *131:35 0
19 *62:85 *393:A3 5.3304e-05
20 *62:85 *131:10 3.70187e-05
21 *62:85 *131:35 0.000358484
22 *97:8 *131:35 0.000150773
23 *98:12 *131:10 1.0092e-05
24 *103:12 *131:8 9.91548e-05
25 *105:90 *131:35 0.000264217
26 *106:10 *131:35 0.000185434
27 *111:8 *131:10 0.000348465
28 *113:12 *131:8 0.00031495
*RES
1 *459:X *131:8 43.8621 
2 *131:8 *131:10 9.65286 
3 *131:10 *393:A3 38.6214 
4 *131:10 *131:35 32.4829 
5 *131:35 *384:B 23 
*END

*D_NET *132 0.00334728
*CONN
*I *394:B I *D sky130_fd_sc_hd__nand3b_2
*I *391:C I *D sky130_fd_sc_hd__and3b_2
*I *353:C_N I *D sky130_fd_sc_hd__or3b_4
*I *387:B I *D sky130_fd_sc_hd__nor2_2
*I *403:A2 I *D sky130_fd_sc_hd__a221oi_2
*I *460:X O *D sky130_fd_sc_hd__clkbuf_2
*CAP
1 *394:B 0.000235128
2 *391:C 0
3 *353:C_N 2.89713e-05
4 *387:B 0
5 *403:A2 0.000112181
6 *460:X 0.000436794
7 *132:51 0.00034731
8 *132:30 0.000347868
9 *132:10 0.000117897
10 *353:C_N *148:26 7.40718e-05
11 *394:B *394:C 5.55743e-06
12 *394:B *134:40 0.000125763
13 *394:B *134:49 5.14826e-05
14 *132:10 *404:A1 0.000131386
15 *132:10 *137:10 5.5792e-05
16 *132:30 *387:A 5.58003e-05
17 *132:30 *134:8 6.70361e-05
18 *132:30 *148:26 0.00040415
19 *132:30 *162:37 8.13166e-05
20 *132:51 *391:A_N 1.12796e-05
21 *132:51 *134:27 1.9054e-05
22 *132:51 *134:31 3.50997e-05
23 *132:51 *134:40 0.000106925
24 *407:A3 *132:30 5.3304e-05
25 *62:16 *353:C_N 8.15864e-05
26 *62:16 *132:30 3.94853e-05
27 *63:92 *132:10 0.000133515
28 *112:10 *132:51 0.000188526
*RES
1 *460:X *132:10 40.5271 
2 *132:10 *403:A2 38 
3 *460:X *132:30 30.9543 
4 *132:30 *387:B 23 
5 *132:30 *353:C_N 24.5743 
6 *403:A2 *132:51 26.2625 
7 *132:51 *391:C 23 
8 *132:51 *394:B 27.2154 
*END

*D_NET *133 0.00293489
*CONN
*I *450:A I *D sky130_fd_sc_hd__buf_6
*I *451:A I *D sky130_fd_sc_hd__clkdlybuf4s25_1
*I *461:X O *D sky130_fd_sc_hd__buf_6
*CAP
1 *450:A 0
2 *451:A 0
3 *461:X 0.000203517
4 *133:16 0.00108228
5 *133:6 0.00128579
6 *133:6 *148:8 0.000143655
7 *133:16 *160:10 5.15848e-05
8 *9:9 *133:16 7.88828e-05
9 *17:9 *133:16 3.22879e-05
10 *29:12 *133:16 5.68958e-05
*RES
1 *461:X *133:6 27.4329 
2 *133:6 *133:16 48.85 
3 *133:16 *451:A 23 
4 *133:6 *450:A 23 
*END

*D_NET *134 0.00866536
*CONN
*I *403:A1 I *D sky130_fd_sc_hd__a221oi_2
*I *388:A I *D sky130_fd_sc_hd__nor2_2
*I *351:A I *D sky130_fd_sc_hd__and2_2
*I *352:A I *D sky130_fd_sc_hd__nand2_2
*I *389:A I *D sky130_fd_sc_hd__or2_2
*I *353:B I *D sky130_fd_sc_hd__or3b_4
*I *392:A1 I *D sky130_fd_sc_hd__a21o_2
*I *394:C I *D sky130_fd_sc_hd__nand3b_2
*I *391:A_N I *D sky130_fd_sc_hd__and3b_2
*I *410:A1 I *D sky130_fd_sc_hd__o211a_2
*I *462:X O *D sky130_fd_sc_hd__clkbuf_2
*CAP
1 *403:A1 0
2 *388:A 0.000124886
3 *351:A 0
4 *352:A 8.51035e-05
5 *389:A 7.61883e-05
6 *353:B 0
7 *392:A1 0
8 *394:C 2.18567e-05
9 *391:A_N 1.5492e-05
10 *410:A1 0.000340569
11 *462:X 0.000405289
12 *134:83 0.00027684
13 *134:75 0.000419322
14 *134:68 0.000452437
15 *134:55 0.000112556
16 *134:49 0.000463663
17 *134:40 0.000272877
18 *134:31 0.000245029
19 *134:27 0.000350931
20 *134:8 0.00104071
21 *352:A *389:B 4.21921e-05
22 *388:A *149:36 0.000101697
23 *388:A *151:93 8.55549e-05
24 *389:A *389:B 0.000143676
25 *410:A1 *372:B 0.000183581
26 *410:A1 *410:B1 8.33823e-05
27 *410:A1 *410:C1 0.000175982
28 *410:A1 *151:14 0.000101292
29 *134:27 *148:16 6.63159e-06
30 *134:27 *151:14 1.82285e-05
31 *134:27 *162:20 1.07722e-05
32 *134:40 *391:B 0.000121793
33 *134:40 *148:16 4.69418e-05
34 *134:40 *151:93 2.95526e-05
35 *134:49 *151:93 9.37229e-05
36 *134:68 *151:93 0.000106865
37 *134:75 *151:93 9.79925e-05
38 *134:83 *147:12 1.21564e-05
39 *134:83 *149:36 0.000112396
40 *134:83 *151:93 1.51481e-05
41 *394:B *394:C 5.55743e-06
42 *394:B *134:40 0.000125763
43 *394:B *134:49 5.14826e-05
44 *403:B2 *134:31 2.93104e-06
45 *405:A *134:27 5.58003e-05
46 *407:A1 *134:27 0.000265406
47 *407:A3 *134:8 2.20564e-05
48 *448:D1 *134:68 9.77405e-05
49 *19:13 *134:8 0.000271592
50 *57:10 *134:68 7.42327e-05
51 *62:16 *134:75 7.05853e-05
52 *62:29 *134:83 3.88629e-05
53 *62:43 *388:A 5.76359e-05
54 *63:8 *352:A 1.35714e-05
55 *63:50 *134:83 2.23754e-05
56 *64:8 *134:68 6.5117e-06
57 *83:23 *410:A1 0
58 *98:12 *134:55 7.28792e-05
59 *105:24 *134:27 2.29192e-05
60 *105:72 *134:68 0.000124023
61 *112:10 *134:27 0.000317604
62 *112:10 *134:31 2.60063e-05
63 *124:10 *410:A1 3.24843e-05
64 *124:10 *134:27 2.64503e-05
65 *124:23 *134:27 0.000105476
66 *124:36 *134:27 3.91654e-05
67 *124:36 *134:31 0.000142678
68 *124:36 *134:40 4.08664e-05
69 *132:30 *134:8 6.70361e-05
70 *132:51 *391:A_N 1.12796e-05
71 *132:51 *134:27 1.9054e-05
72 *132:51 *134:31 3.50997e-05
73 *132:51 *134:40 0.000106925
*RES
1 *462:X *134:8 43.3857 
2 *134:8 *410:A1 46.4618 
3 *134:8 *134:27 23.3479 
4 *134:27 *134:31 2.07143 
5 *134:31 *391:A_N 23.4971 
6 *134:31 *134:40 4.90929 
7 *134:40 *394:C 23.4971 
8 *134:40 *134:49 2.05071 
9 *134:49 *134:55 32.2579 
10 *134:55 *392:A1 23 
11 *134:49 *134:68 36.09 
12 *134:68 *353:B 23 
13 *134:68 *134:75 3.48 
14 *134:75 *134:83 32.755 
15 *134:83 *389:A 24.5743 
16 *134:83 *352:A 24.595 
17 *134:75 *351:A 23 
18 *134:75 *388:A 26.5007 
19 *134:27 *403:A1 23 
*END

*D_NET *135 0.00565135
*CONN
*I *373:B I *D sky130_fd_sc_hd__and2b_2
*I *411:A1_N I *D sky130_fd_sc_hd__a2bb2o_2
*I *410:B1 I *D sky130_fd_sc_hd__o211a_2
*I *374:B I *D sky130_fd_sc_hd__xnor2_2
*I *463:X O *D sky130_fd_sc_hd__clkdlybuf4s25_1
*CAP
1 *373:B 0
2 *411:A1_N 0
3 *410:B1 0.000262178
4 *374:B 0.000218116
5 *463:X 0.000407789
6 *135:53 0.000506982
7 *135:27 0.000459999
8 *135:23 0.000816893
9 *135:8 0.000737994
10 *410:B1 *410:C1 0.000116123
11 *135:23 *151:43 1.22803e-05
12 *135:53 *447:C 6.8743e-05
13 *135:53 *474:A 9.18236e-05
14 *135:53 *138:33 2.64616e-05
15 *409:A2 *135:8 9.58714e-05
16 *409:B1 *135:8 4.95081e-05
17 *410:A1 *410:B1 8.33823e-05
18 *411:A2_N *135:27 2.93747e-05
19 *411:B2 *374:B 1.12487e-05
20 *411:B2 *135:23 4.49946e-05
21 *411:B2 *135:27 0
22 *412:B *135:53 0.000153784
23 *416:A2_N *135:27 2.64616e-05
24 *416:A2_N *135:53 7.94511e-05
25 *83:23 *135:23 0
26 *83:23 *135:53 1.37232e-05
27 *84:18 *374:B 0.00026282
28 *84:18 *135:23 0.000187996
29 *84:18 *135:53 0.000262864
30 *85:8 *374:B 9.5877e-05
31 *87:21 *135:8 5.3304e-05
32 *87:34 *374:B 0.000238185
33 *105:43 *135:23 6.25829e-05
34 *117:8 *135:8 8.08139e-06
35 *118:12 *410:B1 0.000161075
36 *118:12 *135:27 5.38297e-06
*RES
1 *463:X *135:8 43.3857 
2 *135:8 *374:B 43.2407 
3 *135:8 *135:23 17.9621 
4 *135:23 *135:27 3.01393 
5 *135:27 *410:B1 29.1211 
6 *135:27 *411:A1_N 23 
7 *135:23 *135:53 38.2857 
8 *135:53 *373:B 23 
*END

*D_NET *136 0.000974431
*CONN
*I *472:A I *D sky130_fd_sc_hd__buf_8
*I *402:X O *D sky130_fd_sc_hd__and3_4
*CAP
1 *472:A 0
2 *402:X 0.000379838
3 *136:8 0.000379838
4 *136:8 *148:16 0.000214754
5 *30:10 *136:8 0
*RES
1 *402:X *136:8 46.5964 
2 *136:8 *472:A 38 
*END

*D_NET *137 0.00295252
*CONN
*I *473:A I *D sky130_fd_sc_hd__clkdlybuf4s25_1
*I *447:A I *D sky130_fd_sc_hd__or3_2
*I *407:X O *D sky130_fd_sc_hd__o32a_2
*CAP
1 *473:A 0
2 *447:A 0.000187415
3 *407:X 0.000413766
4 *137:12 0.000187415
5 *137:10 0.000413766
6 *447:A *151:33 6.8667e-05
7 *447:A *151:63 9.8592e-06
8 *447:A *156:23 0.00039802
9 *447:A *162:27 4.44894e-05
10 *137:10 *404:A1 0.000183922
11 *137:10 *162:10 6.437e-05
12 *406:A3 *447:A 7.79323e-05
13 *407:A2 *137:10 0.000137525
14 *407:A3 *137:10 0.000308635
15 *19:13 *137:10 9.86777e-06
16 *62:16 *447:A 0.000141355
17 *100:16 *447:A 4.53082e-05
18 *105:43 *137:10 2.14998e-05
19 *115:8 *137:10 0.00018292
20 *132:10 *137:10 5.5792e-05
*RES
1 *407:X *137:10 46.7 
2 *137:10 *137:12 15 
3 *137:12 *447:A 29.3593 
4 *137:12 *473:A 23 
*END

*D_NET *138 0.00233945
*CONN
*I *447:B I *D sky130_fd_sc_hd__or3_2
*I *474:A I *D sky130_fd_sc_hd__clkdlybuf4s25_1
*I *412:X O *D sky130_fd_sc_hd__or3_2
*CAP
1 *447:B 0
2 *474:A 0.000305075
3 *412:X 0.00015572
4 *138:33 0.000171346
5 *138:6 0.000632141
6 *474:A *376:A1 6.1487e-05
7 *138:33 *447:C 3.88725e-05
8 *376:B1 *474:A 9.67842e-05
9 *412:B *138:6 0.000102389
10 *412:B *138:33 1.0092e-05
11 *412:C *474:A 0.000355612
12 *412:C *138:6 4.77213e-05
13 *83:23 *474:A 0.00022072
14 *83:23 *138:33 0
15 *87:10 *474:A 2.32004e-05
16 *135:53 *474:A 9.18236e-05
17 *135:53 *138:33 2.64616e-05
*RES
1 *412:X *138:6 26.48 
2 *138:6 *474:A 32.425 
3 *138:6 *138:33 32.7964 
4 *138:33 *447:B 23 
*END

*D_NET *139 0.00182129
*CONN
*I *447:C I *D sky130_fd_sc_hd__or3_2
*I *475:A I *D sky130_fd_sc_hd__clkdlybuf4s25_1
*I *417:X O *D sky130_fd_sc_hd__o32a_2
*CAP
1 *447:C 0.000317012
2 *475:A 0.000303685
3 *417:X 0
4 *139:6 0.000620697
5 *412:B *447:C 2.41326e-05
6 *412:B *475:A 5.11935e-06
7 *413:A1 *475:A 0
8 *62:16 *447:C 1.0092e-05
9 *84:10 *447:C 9.85378e-05
10 *84:10 *475:A 1.01436e-05
11 *84:18 *475:A 0
12 *86:8 *447:C 0.000102613
13 *87:10 *447:C 4.98399e-06
14 *87:10 *475:A 7.00074e-05
15 *88:12 *475:A 0
16 *88:14 *475:A 0
17 *88:29 *475:A 0
18 *118:12 *475:A 0.000100195
19 *121:10 *475:A 3.62219e-05
20 *122:10 *475:A 1.02387e-05
21 *135:53 *447:C 6.8743e-05
22 *138:33 *447:C 3.88725e-05
*RES
1 *417:X *139:6 38 
2 *139:6 *475:A 44.1314 
3 *139:6 *447:C 43.4271 
*END

*D_NET *140 0.00436387
*CONN
*I *476:A I *D sky130_fd_sc_hd__clkdlybuf4s25_1
*I *448:B1 I *D sky130_fd_sc_hd__a2111o_2
*I *423:X O *D sky130_fd_sc_hd__o2bb2a_2
*CAP
1 *476:A 0.000129857
2 *448:B1 0.000120266
3 *423:X 0
4 *140:16 0.000754623
5 *140:4 0.000764214
6 *448:B1 *362:B 6.65544e-05
7 *448:B1 *448:C1 0.000353328
8 *476:A *423:B2 0
9 *140:16 *362:B 0.000308635
10 *140:16 *366:B 5.99119e-05
11 *140:16 *448:C1 0.00015377
12 *140:16 *477:A 0.000400699
13 *140:16 *141:8 5.19959e-05
14 *140:16 *149:70 0.00045042
15 *140:16 *157:16 8.06923e-05
16 *423:A1_N *140:16 1.56058e-05
17 *423:A2_N *140:16 2.45549e-06
18 *448:A2 *448:B1 0.000138859
19 *456:A *140:16 9.86446e-05
20 *36:8 *140:16 0.000338161
21 *39:10 *140:16 5.23803e-05
22 *90:12 *140:16 1.94418e-05
23 *105:140 *140:16 3.35883e-06
*RES
1 *423:X *140:4 23 
2 *140:4 *140:16 47.8971 
3 *140:16 *448:B1 26.9564 
4 *140:4 *476:A 25.4236 
*END

*D_NET *141 0.00361968
*CONN
*I *448:C1 I *D sky130_fd_sc_hd__a2111o_2
*I *477:A I *D sky130_fd_sc_hd__clkdlybuf4s25_1
*I *428:X O *D sky130_fd_sc_hd__o32a_2
*CAP
1 *448:C1 0.000409456
2 *477:A 0.000249847
3 *428:X 0.000140288
4 *141:8 0.000799591
5 *448:C1 *362:B 2.09226e-05
6 *477:A *366:B 0.000401548
7 *141:8 *366:B 3.46013e-05
8 *362:A *448:C1 0.000271404
9 *448:A2 *448:C1 2.02872e-05
10 *448:B1 *448:C1 0.000353328
11 *39:10 *141:8 2.04889e-05
12 *73:14 *141:8 8.57577e-05
13 *103:56 *477:A 7.48505e-05
14 *103:56 *141:8 1.18379e-05
15 *105:130 *141:8 4.41821e-06
16 *128:6 *448:C1 0.00011459
17 *140:16 *448:C1 0.00015377
18 *140:16 *477:A 0.000400699
19 *140:16 *141:8 5.19959e-05
*RES
1 *428:X *141:8 40.2579 
2 *141:8 *477:A 45.4779 
3 *141:8 *448:C1 46.8864 
*END

*D_NET *142 0.00241793
*CONN
*I *478:A I *D sky130_fd_sc_hd__dlymetal6s2s_1
*I *436:X O *D sky130_fd_sc_hd__and2_2
*CAP
1 *478:A 0.000174868
2 *436:X 0.000251089
3 *142:8 0.000425957
4 *478:A *149:18 0.000397555
5 *478:A *158:21 1.01436e-05
6 *478:A *158:34 4.98718e-06
7 *142:8 *159:43 0.000263652
8 *365:A *478:A 5.3304e-05
9 *383:A2 *478:A 5.01986e-05
10 *428:A1 *142:8 2.33782e-05
11 *428:B1 *142:8 0.000476255
12 *432:A3 *478:A 2.64616e-05
13 *40:10 *478:A 6.57551e-05
14 *76:16 *478:A 0.000194327
*RES
1 *436:X *142:8 44.815 
2 *142:8 *478:A 44.0486 
*END

*D_NET *143 0.00168154
*CONN
*I *479:A I *D sky130_fd_sc_hd__dlymetal6s2s_1
*I *446:X O *D sky130_fd_sc_hd__and2_2
*CAP
1 *479:A 0
2 *446:X 0.000568229
3 *143:10 0.000568229
4 *359:A2 *143:10 0.000188344
5 *438:B *143:10 0.000214318
6 *59:10 *143:10 5.04049e-05
7 *59:29 *143:10 3.40618e-05
8 *62:73 *143:10 5.79559e-05
9 *131:35 *143:10 0
*RES
1 *446:X *143:10 48.9786 
2 *143:10 *479:A 38 
*END

*D_NET *144 0.00245892
*CONN
*I *449:B1 I *D sky130_fd_sc_hd__a211oi_2
*I *480:A I *D sky130_fd_sc_hd__buf_6
*I *400:X O *D sky130_fd_sc_hd__o21a_4
*CAP
1 *449:B1 0
2 *480:A 0.000308414
3 *400:X 0
4 *144:23 0.000202609
5 *144:4 0.000511023
6 *480:A *161:16 4.2062e-05
7 *480:A *161:27 2.93747e-05
8 *480:A *161:42 0.000430638
9 *144:23 *145:8 0.000137651
10 *144:23 *161:42 8.264e-05
11 *58:12 *144:23 9.58714e-05
12 *63:84 *480:A 0.000110767
13 *96:16 *144:23 0.000163352
14 *103:16 *144:23 0.000161121
15 *109:19 *480:A 0.000133734
16 *109:19 *144:23 4.9662e-05
*RES
1 *400:X *144:4 23 
2 *144:4 *480:A 30.3121 
3 *144:4 *144:23 35.4064 
4 *144:23 *449:B1 23 
*END

*D_NET *145 0.00156137
*CONN
*I *481:A I *D sky130_fd_sc_hd__buf_6
*I *449:Y O *D sky130_fd_sc_hd__a211oi_2
*CAP
1 *481:A 0
2 *449:Y 0.000571607
3 *145:8 0.000571607
4 *145:8 *399:B 9.84794e-05
5 *100:58 *145:8 5.41385e-05
6 *101:10 *145:8 5.50106e-05
7 *110:10 *145:8 7.28721e-05
8 *144:23 *145:8 0.000137651
*RES
1 *449:Y *145:8 32.6943 
2 *145:8 *481:A 23 
*END

*D_NET *146 0.0035885
*CONN
*I *350:A I *D sky130_fd_sc_hd__inv_2
*I *416:A1_N I *D sky130_fd_sc_hd__a2bb2o_2
*I *417:B2 I *D sky130_fd_sc_hd__o32a_2
*I *415:A2 I *D sky130_fd_sc_hd__a31o_2
*I *464:X O *D sky130_fd_sc_hd__clkdlybuf4s25_1
*CAP
1 *350:A 0
2 *416:A1_N 0
3 *417:B2 6.65048e-05
4 *415:A2 4.08681e-05
5 *464:X 0.000398426
6 *146:53 0.000357416
7 *146:25 7.56206e-05
8 *146:21 0.000619921
9 *146:10 0.000692683
10 *146:21 *367:B 0
11 *146:53 *372:B 4.39159e-06
12 *412:A *146:10 4.6318e-06
13 *412:A *146:21 0.00010663
14 *413:A1 *146:53 0.000173053
15 *416:A2_N *417:B2 0.000169797
16 *416:A2_N *146:25 1.05846e-05
17 *416:B1 *146:53 2.64616e-05
18 *417:A3 *417:B2 0.000188927
19 *5:9 *146:10 3.7122e-06
20 *62:29 *146:53 2.05503e-05
21 *82:31 *146:53 0.000152334
22 *88:12 *415:A2 6.48224e-06
23 *88:12 *146:10 0.000337514
24 *88:14 *146:10 1.13786e-05
25 *103:80 *417:B2 4.06407e-05
26 *103:80 *146:25 4.41027e-06
27 *103:80 *146:53 7.55609e-05
*RES
1 *464:X *146:10 44.5457 
2 *146:10 *415:A2 38.6214 
3 *146:10 *146:21 3.66643 
4 *146:21 *146:25 15.2486 
5 *146:25 *417:B2 25.9 
6 *146:25 *416:A1_N 23 
7 *146:21 *146:53 33.0967 
8 *146:53 *350:A 23 
*END

*D_NET *147 0.00623015
*CONN
*I *484:A I *D sky130_fd_sc_hd__buf_2
*I *488:A I *D sky130_fd_sc_hd__buf_2
*I *372:B I *D sky130_fd_sc_hd__xor2_2
*I *471:X O *D sky130_fd_sc_hd__buf_8
*CAP
1 *484:A 0.000215547
2 *488:A 0
3 *372:B 0.00209743
4 *471:X 0
5 *147:12 0.00260584
6 *147:6 0.000723964
7 *372:B *410:C1 1.44813e-05
8 *372:B *156:23 1.05658e-05
9 *484:A *150:12 0
10 *147:12 *151:93 0.00016401
11 *147:12 *156:23 9.05128e-05
12 *372:A *372:B 0
13 *377:A1 *372:B 0
14 *410:A1 *372:B 0.000183581
15 *410:A2 *372:B 0
16 *413:A1 *372:B 0
17 *462:A *372:B 0
18 *62:29 *147:12 0.000107664
19 *83:8 *372:B 0
20 *83:23 *372:B 0
21 *134:83 *147:12 1.21564e-05
22 *146:53 *372:B 4.39159e-06
*RES
1 *471:X *147:6 38 
2 *147:6 *147:12 9.83929 
3 *147:12 *372:B 45.3623 
4 *147:12 *488:A 38 
5 *147:6 *484:A 41.5836 
*END

*D_NET *148 0.00693539
*CONN
*I *483:A I *D sky130_fd_sc_hd__buf_2
*I *353:A I *D sky130_fd_sc_hd__or3b_4
*I *450:X O *D sky130_fd_sc_hd__buf_6
*CAP
1 *483:A 0
2 *353:A 0
3 *450:X 0.000164874
4 *148:26 0.000507813
5 *148:16 0.00163307
6 *148:10 0.00149234
7 *148:8 0.000531965
8 *148:10 *161:8 0
9 *148:10 *161:16 0
10 *148:16 *151:12 0.000419737
11 *148:16 *151:14 2.81425e-05
12 *148:16 *161:16 0
13 *353:C_N *148:26 7.40718e-05
14 *19:13 *148:16 0
15 *20:11 *148:10 0.00025442
16 *22:10 *148:16 0.000183171
17 *62:16 *148:26 5.15593e-05
18 *95:8 *148:10 0
19 *105:24 *148:16 0.000223088
20 *105:43 *148:26 2.99613e-05
21 *114:8 *148:16 1.97402e-05
22 *124:23 *148:16 9.66668e-05
23 *124:36 *148:16 0.000297528
24 *124:49 *148:26 0.000111106
25 *132:30 *148:26 0.00040415
26 *133:6 *148:8 0.000143655
27 *134:27 *148:16 6.63159e-06
28 *134:40 *148:16 4.69418e-05
29 *136:8 *148:16 0.000214754
*RES
1 *450:X *148:8 41.48 
2 *148:8 *148:10 8.59643 
3 *148:10 *148:16 38.1793 
4 *148:16 *148:26 40.295 
5 *148:26 *353:A 23 
6 *148:10 *483:A 38 
*END

*D_NET *149 0.0116332
*CONN
*I *442:A1 I *D sky130_fd_sc_hd__a31o_2
*I *434:A1 I *D sky130_fd_sc_hd__a311o_2
*I *421:A1 I *D sky130_fd_sc_hd__a31oi_2
*I *426:A1 I *D sky130_fd_sc_hd__a31o_2
*I *388:B I *D sky130_fd_sc_hd__nor2_2
*I *352:B I *D sky130_fd_sc_hd__nand2_2
*I *389:B I *D sky130_fd_sc_hd__or2_2
*I *451:X O *D sky130_fd_sc_hd__clkdlybuf4s25_1
*CAP
1 *442:A1 0
2 *434:A1 0
3 *421:A1 0
4 *426:A1 4.4873e-05
5 *388:B 0
6 *352:B 0
7 *389:B 0.000105784
8 *451:X 0.000910488
9 *149:95 0.000363854
10 *149:70 0.000335096
11 *149:36 0.000366884
12 *149:26 0.00057172
13 *149:20 0.00038678
14 *149:18 0.00127879
15 *149:10 0.00145904
16 *426:A1 *426:A2 1.92324e-05
17 *149:10 *356:B 9.30575e-05
18 *149:18 *158:21 0.000120135
19 *149:18 *159:10 0
20 *149:20 *426:A2 4.91172e-06
21 *149:36 *151:93 5.3304e-05
22 *149:70 *421:A2 5.3304e-05
23 *149:70 *426:A2 2.73653e-05
24 *149:70 *157:10 0.000266967
25 *149:70 *157:16 3.55303e-05
26 *149:70 *158:6 9.66668e-05
27 *149:95 *356:B 0.000953476
28 *149:95 *385:A 2.22168e-05
29 *149:95 *442:A2 0.000210646
30 *149:95 *160:23 0.000150242
31 *149:95 *160:25 0.000128223
32 *352:A *389:B 4.21921e-05
33 *383:A2 *149:18 6.53609e-05
34 *388:A *149:36 0.000101697
35 *389:A *389:B 0.000143676
36 *426:B1 *149:26 5.58003e-05
37 *431:A1 *149:18 9.20311e-06
38 *434:A3 *149:10 0
39 *434:B1 *149:18 0.00011445
40 *442:A3 *149:95 0.000102389
41 *478:A *149:18 0.000397555
42 *38:10 *149:18 9.04686e-05
43 *38:10 *149:26 9.91548e-05
44 *39:10 *149:70 5.58003e-05
45 *42:14 *149:18 0
46 *43:19 *149:18 0.000111852
47 *62:6 *149:36 0.000141352
48 *62:29 *149:36 1.223e-05
49 *62:43 *149:26 0.000113533
50 *62:43 *149:36 2.96073e-05
51 *62:67 *149:18 3.39335e-05
52 *63:8 *389:B 7.61229e-06
53 *63:50 *149:36 0.000160125
54 *67:8 *149:10 0.000135547
55 *67:8 *149:18 0.000215801
56 *74:17 *149:18 7.45175e-05
57 *93:35 *149:18 4.81913e-05
58 *99:6 *149:26 5.5792e-05
59 *99:23 *149:26 0.000132734
60 *100:16 *389:B 0.00018304
61 *103:64 *389:B 1.358e-05
62 *105:140 *149:70 7.08123e-05
63 *127:6 *149:70 5.50049e-05
64 *128:12 *149:18 0.000138747
65 *134:83 *149:36 0.000112396
66 *140:16 *149:70 0.00045042
*RES
1 *451:X *149:10 46.2443 
2 *149:10 *149:18 35.6314 
3 *149:18 *149:20 0.621429 
4 *149:20 *149:26 7.45714 
5 *149:26 *149:36 36.7114 
6 *149:36 *389:B 26.0036 
7 *149:36 *352:B 23 
8 *149:26 *388:B 23 
9 *149:20 *426:A1 24.2014 
10 *149:18 *149:70 39.28 
11 *149:70 *421:A1 23 
12 *149:10 *434:A1 38 
13 *451:X *149:95 36.5471 
14 *149:95 *442:A1 23 
*END

*D_NET *150 0.00778209
*CONN
*I *356:B I *D sky130_fd_sc_hd__xor2_2
*I *385:A I *D sky130_fd_sc_hd__xnor2_2
*I *354:B I *D sky130_fd_sc_hd__xor2_2
*I *482:X O *D sky130_fd_sc_hd__buf_2
*CAP
1 *356:B 0.000657523
2 *385:A 0.000597417
3 *354:B 0
4 *482:X 0.000135039
5 *150:33 0.00147955
6 *150:24 0.00182178
7 *150:12 0.00173221
8 *354:A *150:24 0
9 *354:A *150:33 0
10 *359:A2 *150:24 6.10551e-06
11 *438:B *150:24 7.74528e-06
12 *438:B *150:33 2.09284e-05
13 *442:A3 *385:A 7.87243e-05
14 *482:A *150:12 2.38465e-05
15 *484:A *150:12 0
16 *53:8 *150:33 0.000109343
17 *62:85 *385:A 1.59094e-05
18 *62:85 *150:24 0
19 *96:10 *385:A 2.72257e-05
20 *149:10 *356:B 9.30575e-05
21 *149:95 *356:B 0.000953476
22 *149:95 *385:A 2.22168e-05
*RES
1 *482:X *150:12 46.858 
2 *150:12 *150:24 27.5385 
3 *150:24 *354:B 15 
4 *150:24 *150:33 18.3143 
5 *150:33 *385:A 33.8129 
6 *150:33 *356:B 14.7382 
*END

*D_NET *151 0.0163168
*CONN
*I *403:C1 I *D sky130_fd_sc_hd__a221oi_2
*I *393:A1 I *D sky130_fd_sc_hd__a31o_2
*I *394:A_N I *D sky130_fd_sc_hd__nand3b_2
*I *351:B I *D sky130_fd_sc_hd__and2_2
*I *391:B I *D sky130_fd_sc_hd__and3b_2
*I *387:A I *D sky130_fd_sc_hd__nor2_2
*I *406:A1 I *D sky130_fd_sc_hd__a31o_2
*I *415:A1 I *D sky130_fd_sc_hd__a31o_2
*I *410:C1 I *D sky130_fd_sc_hd__o211a_2
*I *483:X O *D sky130_fd_sc_hd__buf_2
*CAP
1 *403:C1 0
2 *393:A1 0
3 *394:A_N 0
4 *351:B 0
5 *391:B 0.000183346
6 *387:A 1.82394e-05
7 *406:A1 0
8 *415:A1 0
9 *410:C1 0.000380816
10 *483:X 0.000164714
11 *151:115 0.000507259
12 *151:100 0.00058592
13 *151:93 0.000755129
14 *151:76 0.000938476
15 *151:74 0.000211603
16 *151:63 0.00048342
17 *151:52 0.000409392
18 *151:43 0.000718717
19 *151:33 0.00134269
20 *151:14 0.00122102
21 *151:12 0.000673034
22 *151:10 0.000544368
23 *151:12 *161:16 0.000166655
24 *151:33 *156:23 9.79925e-05
25 *151:33 *162:20 1.63648e-05
26 *151:33 *162:27 2.40002e-06
27 *151:43 *156:23 7.39684e-05
28 *151:52 *156:23 1.07299e-05
29 *151:52 *162:37 1.0092e-05
30 *151:115 *161:50 5.56356e-05
31 *372:B *410:C1 1.44813e-05
32 *388:A *151:93 8.55549e-05
33 *393:A3 *151:115 5.3304e-05
34 *406:A3 *151:52 3.46013e-05
35 *406:A3 *151:63 5.3304e-05
36 *407:A1 *151:12 0.000167522
37 *407:A1 *151:14 0.00021341
38 *410:A1 *410:C1 0.000175982
39 *410:A1 *151:14 0.000101292
40 *410:A2 *410:C1 6.16531e-05
41 *410:B1 *410:C1 0.000116123
42 *413:A2 *151:43 0.000100061
43 *413:B1 *151:43 0.000185428
44 *415:A3 *151:43 9.67842e-05
45 *447:A *151:33 6.8667e-05
46 *447:A *151:63 9.8592e-06
47 *448:D1 *151:93 0.000312776
48 *19:13 *151:14 0
49 *22:10 *151:12 0.000183171
50 *23:10 *151:33 3.1504e-05
51 *24:10 *410:C1 0
52 *62:6 *151:93 6.55954e-05
53 *62:16 *387:A 2.95526e-05
54 *62:16 *151:63 0.00010556
55 *62:16 *151:93 6.17437e-06
56 *62:85 *151:115 0.000138431
57 *84:18 *151:43 0.000290634
58 *86:8 *151:63 1.39826e-05
59 *98:12 *151:74 3.08153e-05
60 *98:12 *151:100 1.54184e-05
61 *98:12 *151:115 3.32783e-05
62 *100:16 *151:63 0.000137533
63 *100:20 *151:43 0.000250184
64 *100:20 *151:52 4.5153e-05
65 *100:46 *151:52 9.46758e-07
66 *100:46 *151:100 0
67 *102:8 *151:100 5.75756e-06
68 *102:8 *151:115 6.49821e-05
69 *103:12 *151:115 7.46869e-05
70 *103:16 *151:115 0.000209073
71 *104:10 *151:115 9.41704e-05
72 *105:12 *151:100 2.26406e-05
73 *105:43 *151:43 3.0065e-05
74 *105:43 *151:52 3.43952e-05
75 *107:12 *151:12 9.11394e-05
76 *109:25 *151:115 0.000222113
77 *110:10 *151:12 0.000227387
78 *111:8 *151:115 0.000345304
79 *117:8 *151:43 0.000576278
80 *118:12 *410:C1 0
81 *120:6 *151:43 0.000137671
82 *124:10 *151:33 3.95707e-06
83 *131:10 *151:115 0.000159831
84 *132:30 *387:A 5.58003e-05
85 *134:27 *151:14 1.82285e-05
86 *134:40 *391:B 0.000121793
87 *134:40 *151:93 2.95526e-05
88 *134:49 *151:93 9.37229e-05
89 *134:68 *151:93 0.000106865
90 *134:75 *151:93 9.79925e-05
91 *134:83 *151:93 1.51481e-05
92 *135:23 *151:43 1.22803e-05
93 *147:12 *151:93 0.00016401
94 *148:16 *151:12 0.000419737
95 *148:16 *151:14 2.81425e-05
96 *149:36 *151:93 5.3304e-05
*RES
1 *483:X *151:10 40.1957 
2 *151:10 *151:12 13.5264 
3 *151:12 *151:14 6.48357 
4 *151:14 *410:C1 46.3271 
5 *151:14 *151:33 37.2914 
6 *151:33 *151:43 32.1307 
7 *151:43 *415:A1 23 
8 *151:33 *151:52 16.9057 
9 *151:52 *406:A1 23 
10 *151:52 *151:63 19.9093 
11 *151:63 *387:A 38.6214 
12 *151:63 *151:74 2.25786 
13 *151:74 *151:76 15 
14 *151:76 *391:B 25.5271 
15 *151:76 *151:93 42.5529 
16 *151:93 *351:B 23 
17 *151:74 *151:100 1.20143 
18 *151:100 *394:A_N 38 
19 *151:100 *151:115 29.79 
20 *151:115 *393:A1 23 
21 *151:12 *403:C1 38 
*END

*D_NET *152 0.00648972
*CONN
*I *366:B I *D sky130_fd_sc_hd__xor2_2
*I *362:B I *D sky130_fd_sc_hd__xor2_2
*I *484:X O *D sky130_fd_sc_hd__buf_2
*CAP
1 *366:B 0.000757554
2 *362:B 0.00141629
3 *484:X 0.000531511
4 *152:10 0.00119024
5 *362:A *362:B 1.72e-05
6 *428:B1 *152:10 0.000395514
7 *448:A2 *362:B 0.000312451
8 *448:B1 *362:B 6.65544e-05
9 *448:C1 *362:B 2.09226e-05
10 *477:A *366:B 0.000401548
11 *26:8 *366:B 0
12 *36:8 *366:B 0.000342261
13 *41:14 *362:B 0.000267773
14 *58:8 *152:10 0.000110258
15 *73:10 *362:B 3.08719e-06
16 *77:17 *366:B 0
17 *90:12 *366:B 0
18 *99:23 *152:10 2.51913e-05
19 *103:56 *366:B 0.000228224
20 *127:21 *366:B 0
21 *140:16 *362:B 0.000308635
22 *140:16 *366:B 5.99119e-05
23 *141:8 *366:B 3.46013e-05
*RES
1 *484:X *152:10 45.8921 
2 *152:10 *362:B 26.7139 
3 *362:B *366:B 47.0479 
*END

*D_NET *153 0.00155113
*CONN
*I *399:B I *D sky130_fd_sc_hd__nand2_2
*I *485:X O *D sky130_fd_sc_hd__buf_6
*CAP
1 *399:B 3.7965e-05
2 *485:X 0.000290875
3 *153:10 0.00032884
4 *153:10 *154:10 2.24973e-05
5 *153:10 *161:27 0
6 *63:92 *153:10 0
7 *97:16 *153:10 9.41704e-05
8 *100:58 *153:10 0.000135037
9 *101:10 *153:10 0.000339903
10 *104:10 *153:10 1.21972e-05
11 *109:10 *153:10 0.000191166
12 *145:8 *399:B 9.84794e-05
*RES
1 *485:X *153:10 45.0014 
2 *153:10 *399:B 39.0979 
*END

*D_NET *154 0.00253993
*CONN
*I *390:A2 I *D sky130_fd_sc_hd__a211o_2
*I *486:X O *D sky130_fd_sc_hd__buf_2
*CAP
1 *390:A2 0
2 *486:X 0.000554988
3 *154:10 0.000554988
4 *397:B *154:10 0.000267173
5 *70:14 *154:10 0.000552992
6 *101:10 *154:10 0.00049312
7 *107:27 *154:10 9.41704e-05
8 *153:10 *154:10 2.24973e-05
*RES
1 *486:X *154:10 49.9729 
2 *154:10 *390:A2 38 
*END

*D_NET *155 0.000823036
*CONN
*I *418:A2 I *D sky130_fd_sc_hd__a21oi_2
*I *487:X O *D sky130_fd_sc_hd__buf_2
*CAP
1 *418:A2 0
2 *487:X 0.000291959
3 *155:12 0.000291959
4 *378:B1 *155:12 1.24376e-05
5 *423:B1 *155:12 0.000179649
6 *61:10 *155:12 2.93747e-05
7 *63:20 *155:12 1.76557e-05
*RES
1 *487:X *155:12 29.0486 
2 *155:12 *418:A2 23 
*END

*D_NET *156 0.00453573
*CONN
*I *376:A2 I *D sky130_fd_sc_hd__o21ai_2
*I *367:B I *D sky130_fd_sc_hd__xor2_2
*I *488:X O *D sky130_fd_sc_hd__buf_2
*CAP
1 *376:A2 0
2 *367:B 0.000412299
3 *488:X 0
4 *156:23 0.000758748
5 *156:6 0.00117105
6 *372:B *156:23 1.05658e-05
7 *412:A *367:B 0
8 *412:A *156:23 0
9 *415:A3 *367:B 4.27044e-05
10 *416:B2 *367:B 7.07958e-05
11 *447:A *156:23 0.00039802
12 *62:29 *367:B 0.000378643
13 *62:29 *156:23 0.000249342
14 *100:16 *156:23 0.000584522
15 *105:43 *156:23 0.00018584
16 *146:21 *367:B 0
17 *147:12 *156:23 9.05128e-05
18 *151:33 *156:23 9.79925e-05
19 *151:43 *156:23 7.39684e-05
20 *151:52 *156:23 1.07299e-05
*RES
1 *488:X *156:6 38 
2 *156:6 *367:B 22.54 
3 *156:6 *156:23 47.5036 
4 *156:23 *376:A2 38 
*END

*D_NET *157 0.00377543
*CONN
*I *422:A1 I *D sky130_fd_sc_hd__o221a_2
*I *421:A2 I *D sky130_fd_sc_hd__a31oi_2
*I *423:B2 I *D sky130_fd_sc_hd__o2bb2a_2
*I *349:A I *D sky130_fd_sc_hd__inv_2
*I *465:X O *D sky130_fd_sc_hd__clkdlybuf4s25_1
*CAP
1 *422:A1 0.000129479
2 *421:A2 0.000132706
3 *423:B2 3.15879e-05
4 *349:A 4.67338e-05
5 *465:X 0.000381174
6 *157:16 0.000240822
7 *157:10 0.00042392
8 *157:6 0.000639368
9 *378:A2 *349:A 5.50049e-05
10 *423:A2_N *349:A 0.00010655
11 *423:A2_N *157:16 4.9662e-05
12 *423:B1 *349:A 4.79641e-05
13 *423:B1 *423:B2 3.91386e-05
14 *476:A *423:B2 0
15 *33:10 *157:6 0.000429314
16 *90:12 *157:10 0.000178022
17 *90:12 *157:16 0.000213073
18 *103:56 *422:A1 1.61361e-05
19 *103:56 *157:6 8.8999e-06
20 *105:140 *422:A1 1.9054e-05
21 *105:140 *157:6 5.3304e-05
22 *105:140 *157:10 3.46013e-05
23 *127:6 *421:A2 6.24251e-05
24 *140:16 *157:16 8.06923e-05
25 *149:70 *421:A2 5.3304e-05
26 *149:70 *157:10 0.000266967
27 *149:70 *157:16 3.55303e-05
*RES
1 *465:X *157:6 28.8621 
2 *157:6 *157:10 18.6664 
3 *157:10 *157:16 19.06 
4 *157:16 *349:A 25.0507 
5 *157:16 *423:B2 23.8493 
6 *157:10 *421:A2 40.0507 
7 *157:6 *422:A1 24.9471 
*END

*D_NET *158 0.00364801
*CONN
*I *364:A_N I *D sky130_fd_sc_hd__and2b_2
*I *363:B I *D sky130_fd_sc_hd__and2b_2
*I *427:A1_N I *D sky130_fd_sc_hd__a2bb2o_2
*I *428:B2 I *D sky130_fd_sc_hd__o32a_2
*I *426:A2 I *D sky130_fd_sc_hd__a31o_2
*I *466:X O *D sky130_fd_sc_hd__clkdlybuf4s25_1
*CAP
1 *364:A_N 0
2 *363:B 0.000130127
3 *427:A1_N 4.3142e-05
4 *428:B2 0
5 *426:A2 9.78942e-05
6 *466:X 5.04787e-05
7 *158:47 0.000356981
8 *158:34 0.00046002
9 *158:21 0.000420185
10 *158:6 0.000378534
11 *363:A_N *363:B 5.50049e-05
12 *383:A2 *363:B 9.84794e-05
13 *383:A2 *158:47 0.000127672
14 *426:A1 *426:A2 1.92324e-05
15 *428:A1 *158:34 3.20631e-05
16 *431:B1 *427:A1_N 0.000120222
17 *431:B1 *158:47 5.93278e-05
18 *478:A *158:21 1.01436e-05
19 *478:A *158:34 4.98718e-06
20 *39:10 *158:21 2.46399e-05
21 *40:10 *427:A1_N 1.94812e-05
22 *40:10 *158:21 1.14452e-05
23 *40:10 *158:34 0.000111852
24 *42:14 *158:47 5.08899e-05
25 *73:14 *158:34 0
26 *73:14 *158:47 0
27 *76:16 *158:34 3.3123e-05
28 *76:16 *158:47 6.07929e-05
29 *105:130 *427:A1_N 1.70074e-05
30 *105:130 *158:21 5.52259e-06
31 *105:130 *158:34 6.68793e-05
32 *105:140 *158:21 0.000367422
33 *128:12 *158:21 0.000165384
34 *149:18 *158:21 0.000120135
35 *149:20 *426:A2 4.91172e-06
36 *149:70 *426:A2 2.73653e-05
37 *149:70 *158:6 9.66668e-05
*RES
1 *466:X *158:6 24.0979 
2 *158:6 *426:A2 24.9471 
3 *158:6 *158:21 36.1314 
4 *158:21 *428:B2 23 
5 *158:21 *158:34 19.205 
6 *158:34 *427:A1_N 39.3361 
7 *158:34 *158:47 20.4271 
8 *158:47 *363:B 25.6929 
9 *158:47 *364:A_N 23 
*END

*D_NET *159 0.00635041
*CONN
*I *433:A1_N I *D sky130_fd_sc_hd__a2bb2o_2
*I *434:A2 I *D sky130_fd_sc_hd__a311o_2
*I *357:A_N I *D sky130_fd_sc_hd__and2b_2
*I *429:A I *D sky130_fd_sc_hd__or2_2
*I *360:B I *D sky130_fd_sc_hd__and2b_2
*I *467:X O *D sky130_fd_sc_hd__clkdlybuf4s25_1
*CAP
1 *433:A1_N 7.68855e-05
2 *434:A2 0
3 *357:A_N 1.49804e-05
4 *429:A 0
5 *360:B 0
6 *467:X 0.000426009
7 *159:43 0.000741368
8 *159:31 0.00100822
9 *159:23 0.000386261
10 *159:21 0.000363628
11 *159:10 0.000578366
12 *358:A_N *159:31 0
13 *358:B *159:23 0.000136738
14 *358:B *159:31 0.00014196
15 *363:A_N *159:10 0.000102093
16 *383:A1 *159:43 0.000397734
17 *428:B1 *159:43 0.000106023
18 *434:A3 *159:31 0.000135504
19 *434:B1 *159:23 4.21281e-05
20 *434:B1 *159:31 0.000271502
21 *434:B1 *159:43 3.43537e-05
22 *434:C1 *433:A1_N 1.14154e-05
23 *434:C1 *159:23 9.84794e-05
24 *41:6 *159:43 0.000100477
25 *42:14 *159:10 0
26 *42:14 *159:21 0
27 *46:14 *159:31 7.55996e-05
28 *46:14 *159:43 0.000164968
29 *62:67 *159:43 0.000199263
30 *67:8 *159:10 0
31 *67:8 *159:21 0
32 *68:10 *159:21 6.03634e-05
33 *71:10 *357:A_N 5.50106e-05
34 *71:39 *159:21 9.28739e-05
35 *75:10 *159:10 2.20111e-05
36 *92:23 *159:43 3.36638e-05
37 *93:8 *159:43 0.000114092
38 *103:48 *433:A1_N 2.42594e-05
39 *103:48 *159:23 1.55097e-05
40 *105:108 *357:A_N 5.50106e-05
41 *142:8 *159:43 0.000263652
42 *149:18 *159:10 0
*RES
1 *467:X *159:10 44.09 
2 *159:10 *360:B 38 
3 *159:10 *159:21 17.9621 
4 *159:21 *159:23 3.00357 
5 *159:23 *159:31 21.6907 
6 *159:31 *159:43 32.835 
7 *159:43 *429:A 23 
8 *159:31 *357:A_N 38.6214 
9 *159:23 *434:A2 23 
10 *159:21 *433:A1_N 24.6364 
*END

*D_NET *160 0.0041897
*CONN
*I *443:A I *D sky130_fd_sc_hd__nor2_2
*I *438:A I *D sky130_fd_sc_hd__xnor2_2
*I *442:A2 I *D sky130_fd_sc_hd__a31o_2
*I *348:A I *D sky130_fd_sc_hd__inv_2
*I *468:X O *D sky130_fd_sc_hd__clkdlybuf4s25_1
*CAP
1 *443:A 0
2 *438:A 2.02433e-05
3 *442:A2 0.000354897
4 *348:A 0.000128131
5 *468:X 0.000491929
6 *160:49 0.000213811
7 *160:25 0.000485667
8 *160:23 0.000444951
9 *160:10 0.000740674
10 *358:A_N *348:A 0
11 *9:9 *160:10 5.47927e-05
12 *49:6 *160:23 5.50106e-05
13 *49:14 *160:23 4.08664e-05
14 *49:14 *160:25 5.3304e-05
15 *49:14 *160:49 0.000135547
16 *49:27 *348:A 0
17 *49:27 *160:49 0.000369929
18 *54:8 *348:A 4.21594e-06
19 *55:10 *160:49 5.50302e-05
20 *133:16 *160:10 5.15848e-05
21 *149:95 *442:A2 0.000210646
22 *149:95 *160:23 0.000150242
23 *149:95 *160:25 0.000128223
*RES
1 *468:X *160:10 45.5193 
2 *160:10 *348:A 40.2579 
3 *160:10 *160:23 18.0036 
4 *160:23 *160:25 2.52714 
5 *160:25 *442:A2 28.075 
6 *160:25 *438:A 23.4971 
7 *160:23 *160:49 35.4271 
8 *160:49 *443:A 23 
*END

*D_NET *161 0.00588514
*CONN
*I *395:A1_N I *D sky130_fd_sc_hd__a2bb2o_2
*I *384:A I *D sky130_fd_sc_hd__xnor2_2
*I *401:B1 I *D sky130_fd_sc_hd__a21o_2
*I *393:A2 I *D sky130_fd_sc_hd__a31o_2
*I *399:A I *D sky130_fd_sc_hd__nand2_2
*I *400:A1 I *D sky130_fd_sc_hd__o21a_4
*I *469:X O *D sky130_fd_sc_hd__clkdlybuf4s25_1
*CAP
1 *395:A1_N 0.00017433
2 *384:A 5.82187e-05
3 *401:B1 0
4 *393:A2 0
5 *399:A 6.07939e-05
6 *400:A1 0
7 *469:X 9.2225e-05
8 *161:62 0.000232549
9 *161:50 0.000251354
10 *161:42 0.000952577
11 *161:27 0.000834666
12 *161:16 0.00046346
13 *161:8 0.000483036
14 *401:A1 *161:42 5.85987e-05
15 *480:A *161:16 4.2062e-05
16 *480:A *161:27 2.93747e-05
17 *480:A *161:42 0.000430638
18 *18:11 *399:A 6.93553e-05
19 *18:11 *161:8 5.93891e-05
20 *18:11 *161:16 0.000143265
21 *18:11 *161:27 4.07715e-05
22 *63:84 *161:16 0
23 *63:92 *399:A 0.000138718
24 *63:92 *161:27 6.16531e-05
25 *104:10 *161:16 0.000168744
26 *107:12 *161:16 0.000169683
27 *109:19 *161:42 2.79662e-05
28 *131:10 *161:50 0.000243587
29 *131:35 *384:A 2.93747e-05
30 *131:35 *395:A1_N 0.000204408
31 *131:35 *161:50 5.94125e-05
32 *144:23 *161:42 8.264e-05
33 *148:10 *161:8 0
34 *148:10 *161:16 0
35 *148:16 *161:16 0
36 *151:12 *161:16 0.000166655
37 *151:115 *161:50 5.56356e-05
38 *153:10 *161:27 0
*RES
1 *469:X *161:8 39.9057 
2 *161:8 *161:16 25.3157 
3 *161:16 *400:A1 23 
4 *161:16 *161:27 16.8229 
5 *161:27 *399:A 39.9057 
6 *161:27 *161:42 24.57 
7 *161:42 *161:50 34.64 
8 *161:50 *393:A2 23 
9 *161:42 *401:B1 23 
10 *161:8 *161:62 15 
11 *161:62 *384:A 24.0979 
12 *161:62 *395:A1_N 27.1946 
*END

*D_NET *162 0.00518355
*CONN
*I *376:A1 I *D sky130_fd_sc_hd__o21ai_2
*I *404:A1 I *D sky130_fd_sc_hd__o22a_2
*I *406:A2 I *D sky130_fd_sc_hd__a31o_2
*I *375:A I *D sky130_fd_sc_hd__nand2_2
*I *403:B1 I *D sky130_fd_sc_hd__a221oi_2
*I *470:X O *D sky130_fd_sc_hd__clkdlybuf4s25_1
*CAP
1 *376:A1 4.11265e-05
2 *404:A1 0.000515465
3 *406:A2 0
4 *375:A 0
5 *403:B1 0
6 *470:X 0.000188213
7 *162:37 0.000179486
8 *162:27 0.000371785
9 *162:20 0.000357983
10 *162:12 0.000550283
11 *162:10 0.000696602
12 *162:6 0.000410476
13 *404:A2 *404:A1 0
14 *406:A3 *162:27 5.58003e-05
15 *406:A3 *162:37 4.60997e-05
16 *412:C *376:A1 1.14289e-05
17 *412:C *162:6 1.39431e-05
18 *447:A *162:27 4.44894e-05
19 *474:A *376:A1 6.1487e-05
20 *24:10 *162:6 5.50106e-05
21 *63:92 *404:A1 0.000124692
22 *63:92 *162:20 0.000107149
23 *83:23 *376:A1 7.04044e-05
24 *83:23 *162:6 9.67842e-05
25 *83:23 *162:10 1.55246e-05
26 *105:24 *162:20 4.80423e-06
27 *105:43 *404:A1 2.96541e-05
28 *105:43 *162:10 4.71236e-05
29 *105:43 *162:37 0.000110267
30 *111:22 *404:A1 5.76359e-05
31 *113:12 *404:A1 0.000102971
32 *124:10 *162:20 0.000130861
33 *124:23 *162:20 0.000185382
34 *132:10 *404:A1 0.000131386
35 *132:30 *162:37 8.13166e-05
36 *134:27 *162:20 1.07722e-05
37 *137:10 *404:A1 0.000183922
38 *137:10 *162:10 6.437e-05
39 *151:33 *162:20 1.63648e-05
40 *151:33 *162:27 2.40002e-06
41 *151:52 *162:37 1.0092e-05
*RES
1 *470:X *162:6 26.48 
2 *162:6 *162:10 18.3143 
3 *162:10 *162:12 15 
4 *162:12 *162:20 37.1257 
5 *162:20 *403:B1 23 
6 *162:12 *162:27 2.52714 
7 *162:27 *162:37 33.625 
8 *162:37 *375:A 23 
9 *162:27 *406:A2 23 
10 *162:10 *404:A1 47.2593 
11 *162:6 *376:A1 24.74 
*END
