*SPEF "ieee 1481-1999"
*DESIGN "alu_8bit"
*DATE "04:42:14 Saturday September 26, 2026"
*VENDOR "The OpenROAD Project"
*PROGRAM "OpenROAD"
*VERSION "dcf36133a369abc8f3c5e5738cd4d82e4903c0e0"
*DESIGN_FLOW "NAME_SCOPE LOCAL" "PIN_CAP NONE"
*DIVIDER /
*DELIMITER :
*BUS_DELIMITER []
*T_UNIT 1 NS
*C_UNIT 1 PF
*R_UNIT 1 OHM
*L_UNIT 1 HENRY

*NAME_MAP
*3 a[0]
*4 a[1]
*5 a[2]
*6 a[3]
*7 a[4]
*8 a[5]
*9 a[6]
*10 a[7]
*11 b[0]
*12 b[1]
*13 b[2]
*14 b[3]
*15 b[4]
*16 b[5]
*17 b[6]
*18 b[7]
*19 opcode[0]
*20 opcode[1]
*21 opcode[2]
*22 overflow
*23 result[0]
*24 result[1]
*25 result[2]
*26 result[3]
*27 result[4]
*28 result[5]
*29 result[6]
*30 result[7]
*31 zero
*32 _000_
*33 _001_
*34 _002_
*35 _003_
*36 _004_
*37 _005_
*38 _006_
*39 _007_
*40 _008_
*41 _009_
*42 _010_
*43 _011_
*44 _012_
*45 _013_
*46 _014_
*47 _015_
*48 _016_
*49 _017_
*50 _018_
*51 _019_
*52 _020_
*53 _021_
*54 _022_
*55 _023_
*56 _024_
*57 _025_
*58 _026_
*59 _027_
*60 _028_
*61 _029_
*62 _030_
*63 _031_
*64 _032_
*65 _033_
*66 _034_
*67 _035_
*68 _036_
*69 _037_
*70 _038_
*71 _039_
*72 _040_
*73 _041_
*74 _042_
*75 _043_
*76 _044_
*77 _045_
*78 _046_
*79 _047_
*80 _048_
*81 _049_
*82 _050_
*83 _051_
*84 _052_
*85 _053_
*86 _054_
*87 _055_
*88 _056_
*89 _057_
*90 _058_
*91 _059_
*92 _060_
*93 _061_
*94 _062_
*95 _063_
*96 _064_
*97 _065_
*98 _066_
*99 _067_
*100 _068_
*101 _069_
*102 _070_
*103 _071_
*104 _072_
*105 _073_
*106 _074_
*107 _075_
*108 _076_
*109 _077_
*110 _078_
*111 _079_
*112 _080_
*113 _081_
*114 _082_
*115 _083_
*116 _084_
*117 _085_
*118 _086_
*119 _087_
*120 _088_
*121 _089_
*122 _090_
*123 _091_
*124 net1
*125 net10
*126 net11
*127 net12
*128 net13
*129 net14
*130 net15
*131 net16
*132 net17
*133 net18
*134 net19
*135 net2
*136 net20
*137 net21
*138 net22
*139 net23
*140 net24
*141 net25
*142 net26
*143 net27
*144 net28
*145 net29
*146 net3
*147 net30
*148 net31
*149 net32
*150 net33
*151 net34
*152 net35
*153 net36
*154 net37
*155 net38
*156 net39
*157 net4
*158 net5
*159 net6
*160 net7
*161 net8
*162 net9
*163 FILLER_0_29
*164 FILLER_0_32
*165 FILLER_0_62
*166 FILLER_0_65
*167 FILLER_0_68
*168 FILLER_0_71
*169 FILLER_0_74
*170 FILLER_0_77
*171 FILLER_0_80
*172 FILLER_0_83
*173 FILLER_0_85
*174 FILLER_0_88
*175 FILLER_10_12
*176 FILLER_10_25
*177 FILLER_10_36
*178 FILLER_10_55
*179 FILLER_10_58
*180 FILLER_10_90
*181 FILLER_11_15
*182 FILLER_11_43
*183 FILLER_11_46
*184 FILLER_11_50
*185 FILLER_11_53
*186 FILLER_11_67
*187 FILLER_12_27
*188 FILLER_12_47
*189 FILLER_12_53
*190 FILLER_12_56
*191 FILLER_12_59
*192 FILLER_12_62
*193 FILLER_12_65
*194 FILLER_12_80
*195 FILLER_12_83
*196 FILLER_12_85
*197 FILLER_12_88
*198 FILLER_13_28
*199 FILLER_13_43
*200 FILLER_13_55
*201 FILLER_13_64
*202 FILLER_13_84
*203 FILLER_13_87
*204 FILLER_13_90
*205 FILLER_14_24
*206 FILLER_14_27
*207 FILLER_14_29
*208 FILLER_14_59
*209 FILLER_14_62
*210 FILLER_14_81
*211 FILLER_14_85
*212 FILLER_14_88
*213 FILLER_15_21
*214 FILLER_15_24
*215 FILLER_15_27
*216 FILLER_15_29
*217 FILLER_15_50
*218 FILLER_15_53
*219 FILLER_15_65
*220 FILLER_15_68
*221 FILLER_15_77
*222 FILLER_15_80
*223 FILLER_15_83
*224 FILLER_15_85
*225 FILLER_15_88
*226 FILLER_1_24
*227 FILLER_1_27
*228 FILLER_1_57
*229 FILLER_1_66
*230 FILLER_1_69
*231 FILLER_1_72
*232 FILLER_1_88
*233 FILLER_2_11
*234 FILLER_2_27
*235 FILLER_2_64
*236 FILLER_2_82
*237 FILLER_2_85
*238 FILLER_2_88
*239 FILLER_3_12
*240 FILLER_3_24
*241 FILLER_3_27
*242 FILLER_3_3
*243 FILLER_3_71
*244 FILLER_3_82
*245 FILLER_4_26
*246 FILLER_4_42
*247 FILLER_4_47
*248 FILLER_4_50
*249 FILLER_4_53
*250 FILLER_4_56
*251 FILLER_4_65
*252 FILLER_4_85
*253 FILLER_4_88
*254 FILLER_5_26
*255 FILLER_5_35
*256 FILLER_5_38
*257 FILLER_5_41
*258 FILLER_5_53
*259 FILLER_5_81
*260 FILLER_6_29
*261 FILLER_6_3
*262 FILLER_6_44
*263 FILLER_6_47
*264 FILLER_6_59
*265 FILLER_6_62
*266 FILLER_6_85
*267 FILLER_6_88
*268 FILLER_7_49
*269 FILLER_7_52
*270 FILLER_7_55
*271 FILLER_7_67
*272 FILLER_8_36
*273 FILLER_8_42
*274 FILLER_8_48
*275 FILLER_8_68
*276 FILLER_8_71
*277 FILLER_8_81
*278 FILLER_8_85
*279 FILLER_8_88
*280 FILLER_9_12
*281 FILLER_9_26
*282 FILLER_9_43
*283 FILLER_9_51
*284 FILLER_9_54
*285 FILLER_9_57
*286 FILLER_9_73
*287 FILLER_9_85
*288 FILLER_9_88
*289 PHY_EDGE_ROW_0_Left_16
*290 PHY_EDGE_ROW_0_Right_0
*291 PHY_EDGE_ROW_10_Left_26
*292 PHY_EDGE_ROW_10_Right_10
*293 PHY_EDGE_ROW_11_Left_27
*294 PHY_EDGE_ROW_11_Right_11
*295 PHY_EDGE_ROW_12_Left_28
*296 PHY_EDGE_ROW_12_Right_12
*297 PHY_EDGE_ROW_13_Left_29
*298 PHY_EDGE_ROW_13_Right_13
*299 PHY_EDGE_ROW_14_Left_30
*300 PHY_EDGE_ROW_14_Right_14
*301 PHY_EDGE_ROW_15_Left_31
*302 PHY_EDGE_ROW_15_Right_15
*303 PHY_EDGE_ROW_1_Left_17
*304 PHY_EDGE_ROW_1_Right_1
*305 PHY_EDGE_ROW_2_Left_18
*306 PHY_EDGE_ROW_2_Right_2
*307 PHY_EDGE_ROW_3_Left_19
*308 PHY_EDGE_ROW_3_Right_3
*309 PHY_EDGE_ROW_4_Left_20
*310 PHY_EDGE_ROW_4_Right_4
*311 PHY_EDGE_ROW_5_Left_21
*312 PHY_EDGE_ROW_5_Right_5
*313 PHY_EDGE_ROW_6_Left_22
*314 PHY_EDGE_ROW_6_Right_6
*315 PHY_EDGE_ROW_7_Left_23
*316 PHY_EDGE_ROW_7_Right_7
*317 PHY_EDGE_ROW_8_Left_24
*318 PHY_EDGE_ROW_8_Right_8
*319 PHY_EDGE_ROW_9_Left_25
*320 PHY_EDGE_ROW_9_Right_9
*321 TAP_TAPCELL_ROW_0_32
*322 TAP_TAPCELL_ROW_0_33
*323 TAP_TAPCELL_ROW_0_34
*324 TAP_TAPCELL_ROW_10_48
*325 TAP_TAPCELL_ROW_10_49
*326 TAP_TAPCELL_ROW_11_50
*327 TAP_TAPCELL_ROW_12_51
*328 TAP_TAPCELL_ROW_12_52
*329 TAP_TAPCELL_ROW_13_53
*330 TAP_TAPCELL_ROW_14_54
*331 TAP_TAPCELL_ROW_14_55
*332 TAP_TAPCELL_ROW_15_56
*333 TAP_TAPCELL_ROW_15_57
*334 TAP_TAPCELL_ROW_15_58
*335 TAP_TAPCELL_ROW_1_35
*336 TAP_TAPCELL_ROW_2_36
*337 TAP_TAPCELL_ROW_2_37
*338 TAP_TAPCELL_ROW_3_38
*339 TAP_TAPCELL_ROW_4_39
*340 TAP_TAPCELL_ROW_4_40
*341 TAP_TAPCELL_ROW_5_41
*342 TAP_TAPCELL_ROW_6_42
*343 TAP_TAPCELL_ROW_6_43
*344 TAP_TAPCELL_ROW_7_44
*345 TAP_TAPCELL_ROW_8_45
*346 TAP_TAPCELL_ROW_8_46
*347 TAP_TAPCELL_ROW_9_47
*348 _092_
*349 _093_
*350 _094_
*351 _095_
*352 _096_
*353 _097_
*354 _098_
*355 _099_
*356 _100_
*357 _101_
*358 _102_
*359 _103_
*360 _104_
*361 _105_
*362 _106_
*363 _107_
*364 _108_
*365 _109_
*366 _110_
*367 _111_
*368 _112_
*369 _113_
*370 _114_
*371 _115_
*372 _116_
*373 _117_
*374 _118_
*375 _119_
*376 _120_
*377 _121_
*378 _122_
*379 _123_
*380 _124_
*381 _125_
*382 _126_
*383 _127_
*384 _128_
*385 _129_
*386 _130_
*387 _131_
*388 _132_
*389 _133_
*390 _134_
*391 _135_
*392 _136_
*393 _137_
*394 _138_
*395 _139_
*396 _140_
*397 _141_
*398 _142_
*399 _143_
*400 _144_
*401 _145_
*402 _146_
*403 _147_
*404 _148_
*405 _149_
*406 _150_
*407 _151_
*408 _152_
*409 _153_
*410 _154_
*411 _155_
*412 _156_
*413 _157_
*414 _158_
*415 _159_
*416 _160_
*417 _161_
*418 _162_
*419 _163_
*420 _164_
*421 _165_
*422 _166_
*423 _167_
*424 _168_
*425 _169_
*426 _170_
*427 _171_
*428 _172_
*429 _173_
*430 _174_
*431 _175_
*432 _176_
*433 _177_
*434 _178_
*435 _179_
*436 _180_
*437 _181_
*438 _182_
*439 _183_
*440 _184_
*441 _185_
*442 _186_
*443 _187_
*444 _188_
*445 _189_
*446 _190_
*447 _191_
*448 _192_
*449 _193_
*450 fanout31
*451 fanout32
*452 input1
*453 input10
*454 input11
*455 input12
*456 input13
*457 input14
*458 input15
*459 input16
*460 input17
*461 input18
*462 input19
*463 input2
*464 input3
*465 input4
*466 input5
*467 input6
*468 input7
*469 input8
*470 input9
*471 max_cap30
*472 output20
*473 output21
*474 output22
*475 output23
*476 output24
*477 output25
*478 output26
*479 output27
*480 output28
*481 output29
*482 rebuffer33
*483 rebuffer34
*484 rebuffer35
*485 rebuffer36
*486 rebuffer37
*487 rebuffer38
*488 rebuffer39

*PORTS
a[0] I
a[1] I
a[2] I
a[3] I
a[4] I
a[5] I
a[6] I
a[7] I
b[0] I
b[1] I
b[2] I
b[3] I
b[4] I
b[5] I
b[6] I
b[7] I
opcode[0] I
opcode[1] I
opcode[2] I
overflow O
result[0] O
result[1] O
result[2] O
result[3] O
result[4] O
result[5] O
result[6] O
result[7] O
zero O

*D_NET *3 0.00123649
*CONN
*P a[0] I
*I *452:A I *D sky130_fd_sc_hd__clkdlybuf4s25_1
*CAP
1 a[0] 0.000393344
2 *452:A 0.000393344
3 *452:A result[0] 0.00012398
4 *452:A *460:A 0.0001419
5 *452:A *462:A 3.61362e-05
6 *452:A *470:A 0.00014779
*RES
1 a[0] *452:A 10.9622 
*END

*D_NET *4 0.00087426
*CONN
*P a[1] I
*I *463:A I *D sky130_fd_sc_hd__clkdlybuf4s25_1
*CAP
1 a[1] 0.000401776
2 *463:A 0.000401776
3 *463:A result[1] 0
4 *463:A *453:A 7.07081e-05
*RES
1 a[1] *463:A 9.7507 
*END

*D_NET *5 0.0012083
*CONN
*P a[2] I
*I *464:A I *D sky130_fd_sc_hd__clkdlybuf4s25_1
*CAP
1 a[2] 0.000490321
2 *464:A 0.000490321
3 *464:A result[2] 0.000213337
4 *464:A *454:A 1.06698e-05
5 *464:A *146:10 3.64998e-06
*RES
1 a[2] *464:A 13.395 
*END

*D_NET *6 0.00245825
*CONN
*P a[3] I
*I *465:A I *D sky130_fd_sc_hd__clkdlybuf4s25_1
*CAP
1 a[3] 0.000573751
2 *465:A 0.000573751
3 *465:A result[3] 0.000372377
4 *465:A *421:B1 6.50278e-05
5 *465:A *422:C1 0.000157516
6 *465:A *455:A 0.00071583
7 *465:A *456:A 0
*RES
1 a[3] *465:A 8.15557 
*END

*D_NET *7 0.00184177
*CONN
*P a[4] I
*I *466:A I *D sky130_fd_sc_hd__clkdlybuf4s25_1
*CAP
1 a[4] 0.000357123
2 *466:A 0.000357123
3 *466:A result[4] 0.000360598
4 *466:A result[5] 6.27743e-05
5 *466:A *456:A 0.000490356
6 *466:A *103:56 0.000213799
*RES
1 a[4] *466:A 7.96637 
*END

*D_NET *8 0.00118934
*CONN
*P a[5] I
*I *467:A I *D sky130_fd_sc_hd__clkdlybuf4s25_1
*CAP
1 a[5] 0.000455415
2 *467:A 0.000455415
3 *467:A result[5] 0.000211138
4 *467:A *365:B 6.73665e-05
5 *467:A *103:50 0
*RES
1 a[5] *467:A 9.0885 
*END

*D_NET *9 0.00152061
*CONN
*P a[6] I
*I *468:A I *D sky130_fd_sc_hd__clkdlybuf4s25_1
*CAP
1 a[6] 0.000619286
2 *468:A 0.000619286
3 *468:A result[6] 0.000157717
4 *468:A *451:A 7.35729e-05
5 *468:A *160:10 5.0751e-05
*RES
1 a[6] *468:A 15.8775 
*END

*D_NET *10 0.00122492
*CONN
*P a[7] I
*I *469:A I *D sky130_fd_sc_hd__clkdlybuf4s25_1
*CAP
1 a[7] 0.000187324
2 *469:A 0.000187324
3 *469:A *459:A 0.000353461
4 *469:A *461:A 0.00049681
*RES
1 a[7] *469:A 6.74663 
*END

*D_NET *11 0.00129173
*CONN
*P b[0] I
*I *470:A I *D sky130_fd_sc_hd__clkdlybuf4s25_1
*CAP
1 b[0] 0.000517635
2 *470:A 0.000517635
3 *470:A result[1] 3.72916e-05
4 *470:A *462:A 7.13802e-05
5 *452:A *470:A 0.00014779
*RES
1 b[0] *470:A 13.0974 
*END

*D_NET *12 0.000953729
*CONN
*P b[1] I
*I *453:A I *D sky130_fd_sc_hd__clkdlybuf4s25_1
*CAP
1 b[1] 0.00044151
2 *453:A 0.00044151
3 *463:A *453:A 7.07081e-05
*RES
1 b[1] *453:A 11.0892 
*END

*D_NET *13 0.00128704
*CONN
*P b[2] I
*I *454:A I *D sky130_fd_sc_hd__clkdlybuf4s25_1
*CAP
1 b[2] 0.000638184
2 *454:A 0.000638184
3 *464:A *454:A 1.06698e-05
*RES
1 b[2] *454:A 15.15 
*END

*D_NET *14 0.00207079
*CONN
*P b[3] I
*I *455:A I *D sky130_fd_sc_hd__clkdlybuf4s25_1
*CAP
1 b[3] 0.000660917
2 *455:A 0.000660917
3 *455:A *422:B2 3.31217e-05
4 *455:A *92:14 0
5 *465:A *455:A 0.00071583
*RES
1 b[3] *455:A 6.76403 
*END

*D_NET *15 0.00184367
*CONN
*P b[4] I
*I *456:A I *D sky130_fd_sc_hd__clkdlybuf4s25_1
*CAP
1 b[4] 0.000594962
2 *456:A 0.000594962
3 *456:A result[3] 0
4 *456:A *428:A2 8.22477e-05
5 *456:A *448:B1 8.11428e-05
6 *465:A *456:A 0
7 *466:A *456:A 0.000490356
*RES
1 b[4] *456:A 6.78597 
*END

*D_NET *16 0.00108946
*CONN
*P b[5] I
*I *457:A I *D sky130_fd_sc_hd__clkdlybuf4s25_1
*CAP
1 b[5] 0.000534177
2 *457:A 0.000534177
3 *457:A *129:10 2.11084e-05
*RES
1 b[5] *457:A 13.1175 
*END

*D_NET *17 0.00109664
*CONN
*P b[6] I
*I *458:A I *D sky130_fd_sc_hd__clkdlybuf4s25_1
*CAP
1 b[6] 0.000533301
2 *458:A 0.000533301
3 *458:A result[6] 0
4 *458:A *451:A 3.00381e-05
*RES
1 b[6] *458:A 13.1175 
*END

*D_NET *18 0.0032644
*CONN
*P b[7] I
*I *459:A I *D sky130_fd_sc_hd__clkdlybuf4s25_1
*CAP
1 b[7] 0.000884078
2 *459:A 0.000884078
3 *459:A *385:B 2.09442e-05
4 *459:A *390:A1 0
5 *459:A *397:C 0
6 *459:A *398:A 0.000139238
7 *459:A *398:C 7.4027e-05
8 *459:A *398:D_N 0
9 *459:A *399:A 6.47594e-05
10 *459:A *402:A 0.000515106
11 *459:A *402:B 9.43677e-06
12 *459:A *407:B1 8.19234e-05
13 *459:A *461:A 1.09934e-05
14 *459:A *109:12 0
15 *459:A *161:8 5.62618e-05
16 *459:A *161:16 0.000132436
17 *459:A *161:27 3.76596e-05
18 *469:A *459:A 0.000353461
*RES
1 b[7] *459:A 17.216 
*END

*D_NET *19 0.00193289
*CONN
*P opcode[0] I
*I *460:A I *D sky130_fd_sc_hd__clkbuf_2
*CAP
1 opcode[0] 0.000641806
2 *460:A 0.000641806
3 *460:A zero 0
4 *460:A *353:A 0
5 *460:A *407:A2 0.000134515
6 *460:A *407:A3 8.25446e-05
7 *460:A *407:B1 4.89395e-05
8 *460:A *462:A 0
9 *460:A *134:8 0.000231819
10 *460:A *137:12 9.56017e-06
11 *460:A *151:14 0
12 *452:A *460:A 0.0001419
*RES
1 opcode[0] *460:A 13.7903 
*END

*D_NET *20 0.0015857
*CONN
*P opcode[1] I
*I *461:A I *D sky130_fd_sc_hd__buf_6
*CAP
1 opcode[1] 0.000421098
2 *461:A 0.000421098
3 *461:A overflow 0
4 *461:A *148:10 0.000235705
5 *459:A *461:A 1.09934e-05
6 *469:A *461:A 0.00049681
*RES
1 opcode[1] *461:A 10.1199 
*END

*D_NET *21 0.00224908
*CONN
*P opcode[2] I
*I *462:A I *D sky130_fd_sc_hd__clkbuf_2
*CAP
1 opcode[2] 0.000866266
2 *462:A 0.000866266
3 *462:A result[0] 0.000273218
4 *462:A result[1] 7.78276e-06
5 *462:A *372:B 0
6 *462:A *405:B 5.00799e-05
7 *462:A *407:A3 3.89775e-05
8 *462:A *105:43 3.89775e-05
9 *452:A *462:A 3.61362e-05
10 *460:A *462:A 0
11 *470:A *462:A 7.13802e-05
*RES
1 opcode[2] *462:A 6.46217 
*END

*D_NET *22 0.00131974
*CONN
*P overflow O
*I *472:X O *D sky130_fd_sc_hd__buf_8
*CAP
1 overflow 0.000412908
2 *472:X 0.000412908
3 overflow result[7] 0.000188914
4 overflow *353:A 0.000152503
5 overflow *151:12 0.000152503
6 *461:A overflow 0
*RES
1 *472:X overflow 6.9797 
*END

*D_NET *23 0.00146046
*CONN
*P result[0] O
*I *473:X O *D sky130_fd_sc_hd__clkdlybuf4s25_1
*CAP
1 result[0] 0.000352989
2 *473:X 0.000352989
3 result[0] result[1] 0.000275388
4 result[0] *124:10 4.77807e-05
5 result[0] *151:33 3.41184e-05
6 *452:A result[0] 0.00012398
7 *462:A result[0] 0.000273218
*RES
1 *473:X result[0] 8.94183 
*END

*D_NET *24 0.00155062
*CONN
*P result[1] O
*I *474:X O *D sky130_fd_sc_hd__clkdlybuf4s25_1
*CAP
1 result[1] 0.000590934
2 *474:X 0.000590934
3 result[1] *410:C1 0
4 result[1] *162:6 4.82919e-05
5 result[0] result[1] 0.000275388
6 *462:A result[1] 7.78276e-06
7 *463:A result[1] 0
8 *470:A result[1] 3.72916e-05
*RES
1 *474:X result[1] 9.1651 
*END

*D_NET *25 0.00179676
*CONN
*P result[2] O
*I *475:X O *D sky130_fd_sc_hd__clkdlybuf4s25_1
*CAP
1 result[2] 0.000722924
2 *475:X 0.000722924
3 result[2] *88:14 0.000137578
4 *464:A result[2] 0.000213337
*RES
1 *475:X result[2] 21.46 
*END

*D_NET *26 0.00126914
*CONN
*P result[3] O
*I *476:X O *D sky130_fd_sc_hd__clkdlybuf4s25_1
*CAP
1 result[3] 0.000448382
2 *476:X 0.000448382
3 result[3] *366:A 0
4 result[3] *366:B 0
5 *456:A result[3] 0
6 *465:A result[3] 0.000372377
*RES
1 *476:X result[3] 8.3235 
*END

*D_NET *27 0.00160202
*CONN
*P result[4] O
*I *477:X O *D sky130_fd_sc_hd__clkdlybuf4s25_1
*CAP
1 result[4] 0.000443263
2 *477:X 0.000443263
3 result[4] result[5] 0.000354897
4 *466:A result[4] 0.000360598
*RES
1 *477:X result[4] 9.8535 
*END

*D_NET *28 0.00226046
*CONN
*P result[5] O
*I *478:X O *D sky130_fd_sc_hd__dlymetal6s2s_1
*CAP
1 result[5] 0.000541307
2 *478:X 0.000541307
3 result[5] *365:A 0.00026784
4 result[5] *365:B 2.97004e-06
5 result[5] *427:B2 9.5433e-05
6 result[5] *432:A3 5.05437e-05
7 result[5] *103:50 3.31282e-05
8 result[5] *103:56 9.9123e-05
9 result[4] result[5] 0.000354897
10 *466:A result[5] 6.27743e-05
11 *467:A result[5] 0.000211138
*RES
1 *478:X result[5] 11.7031 
*END

*D_NET *29 0.00122763
*CONN
*P result[6] O
*I *479:X O *D sky130_fd_sc_hd__dlymetal6s2s_1
*CAP
1 result[6] 0.000509606
2 *479:X 0.000509606
3 result[6] *451:A 5.06989e-05
4 *458:A result[6] 0
5 *468:A result[6] 0.000157717
*RES
1 *479:X result[6] 14.0175 
*END

*D_NET *30 0.000959587
*CONN
*P result[7] O
*I *480:X O *D sky130_fd_sc_hd__buf_6
*CAP
1 result[7] 0.000280641
2 *480:X 0.000280641
3 result[7] zero 0.00020939
4 result[7] *472:A 0
5 overflow result[7] 0.000188914
*RES
1 *480:X result[7] 7.92877 
*END

*D_NET *31 0.000846258
*CONN
*P zero O
*I *481:X O *D sky130_fd_sc_hd__buf_6
*CAP
1 zero 0.000318434
2 *481:X 0.000318434
3 result[7] zero 0.00020939
4 *460:A zero 0
*RES
1 *481:X zero 7.67377 
*END

*D_NET *32 0.000869558
*CONN
*I *419:A2 I *D sky130_fd_sc_hd__a21oi_2
*I *420:C I *D sky130_fd_sc_hd__or3_2
*I *418:Y O *D sky130_fd_sc_hd__a21oi_2
*CAP
1 *419:A2 0.000139292
2 *420:C 4.13391e-05
3 *418:Y 0.000149619
4 *32:10 0.00033025
5 *419:A2 *420:A 2.97004e-06
6 *419:A2 *63:12 0
7 *419:A2 *92:14 0
8 *420:C *420:B 3.45679e-05
9 *32:10 *420:A 4.49498e-05
10 *32:10 *423:B1 0.00012657
11 *32:10 *63:12 0
*RES
1 *418:Y *32:10 6.12 
2 *32:10 *420:C 4.395 
3 *32:10 *419:A2 5.745 
*END

*D_NET *33 0.000838217
*CONN
*I *422:B1 I *D sky130_fd_sc_hd__o221a_2
*I *419:Y O *D sky130_fd_sc_hd__a21oi_2
*CAP
1 *422:B1 0.000142651
2 *419:Y 0.000142651
3 *422:B1 *422:A2 1.22325e-05
4 *422:B1 *103:56 0.000165072
5 *422:B1 *103:64 1.19028e-05
6 *422:B1 *157:6 0.000363707
*RES
1 *419:Y *422:B1 7.83875 
*END

*D_NET *34 0.00127111
*CONN
*I *423:A2_N I *D sky130_fd_sc_hd__o2bb2a_2
*I *420:X O *D sky130_fd_sc_hd__or3_2
*CAP
1 *423:A2_N 0.000443459
2 *420:X 0.000443459
3 *423:A2_N *349:A 9.91257e-05
4 *423:A2_N *378:A2 1.12578e-05
5 *423:A2_N *420:A 2.87867e-05
6 *423:A2_N *423:B1 2.67184e-05
7 *423:A2_N *448:B1 2.65814e-06
8 *423:A2_N *60:6 9.66106e-05
9 *423:A2_N *92:14 7.23602e-05
10 *423:A2_N *157:16 4.66742e-05
*RES
1 *420:X *423:A2_N 13.35 
*END

*D_NET *35 0.000565303
*CONN
*I *422:C1 I *D sky130_fd_sc_hd__o221a_2
*I *421:Y O *D sky130_fd_sc_hd__a31oi_2
*CAP
1 *422:C1 0.000129121
2 *421:Y 0.000129121
3 *422:C1 *421:B1 8.8266e-05
4 *422:C1 *422:B2 4.7829e-05
5 *422:C1 *127:6 1.34503e-05
6 *465:A *422:C1 0.000157516
*RES
1 *421:Y *422:C1 10.23 
*END

*D_NET *36 0.000785669
*CONN
*I *423:A1_N I *D sky130_fd_sc_hd__o2bb2a_2
*I *422:X O *D sky130_fd_sc_hd__o221a_2
*CAP
1 *423:A1_N 0.000102732
2 *422:X 0.000102732
3 *423:A1_N *366:B 0.000284375
4 *423:A1_N *448:B1 0.000295831
*RES
1 *422:X *423:A1_N 10.8375 
*END

*D_NET *37 0.000668165
*CONN
*I *425:B I *D sky130_fd_sc_hd__nor2_2
*I *424:Y O *D sky130_fd_sc_hd__o21ai_2
*CAP
1 *425:B 0.000166382
2 *424:Y 0.000166382
3 *425:B *421:B1 5.31158e-06
4 *425:B *425:A 0.000166833
5 *425:B *62:45 3.43232e-05
6 *425:B *62:67 0.000128934
*RES
1 *424:Y *425:B 11.13 
*END

*D_NET *38 0.00142719
*CONN
*I *428:A1 I *D sky130_fd_sc_hd__o32a_2
*I *425:Y O *D sky130_fd_sc_hd__nor2_2
*CAP
1 *428:A1 0.000324787
2 *425:Y 0.000324787
3 *428:A1 *422:A2 8.23457e-05
4 *428:A1 *428:B1 0.000121659
5 *428:A1 *478:A 2.10905e-05
6 *428:A1 *62:43 4.77769e-05
7 *428:A1 *62:45 2.85623e-05
8 *428:A1 *62:67 0.000259878
9 *428:A1 *149:18 0.000100502
10 *428:A1 *149:26 8.46818e-05
11 *428:A1 *158:34 3.112e-05
*RES
1 *425:Y *428:A1 14.64 
*END

*D_NET *39 0.000817978
*CONN
*I *428:A2 I *D sky130_fd_sc_hd__o32a_2
*I *426:X O *D sky130_fd_sc_hd__a31o_2
*CAP
1 *428:A2 0.000142352
2 *426:X 0.000142352
3 *428:A2 *421:A1 4.77807e-05
4 *428:A2 *422:A2 0.000306619
5 *428:A2 *448:B1 4.99187e-05
6 *428:A2 *141:8 2.348e-05
7 *428:A2 *158:21 2.3228e-05
8 *456:A *428:A2 8.22477e-05
*RES
1 *426:X *428:A2 11.325 
*END

*D_NET *40 0.000436534
*CONN
*I *428:A3 I *D sky130_fd_sc_hd__o32a_2
*I *427:X O *D sky130_fd_sc_hd__a2bb2o_2
*CAP
1 *428:A3 0.000116348
2 *427:X 0.000116348
3 *428:A3 *422:A2 1.23401e-05
4 *428:A3 *427:A1_N 1.83847e-05
5 *428:A3 *431:B1 8.73389e-06
6 *428:A3 *478:A 6.11019e-05
7 *428:A3 *158:21 9.50342e-06
8 *428:A3 *158:34 9.37731e-05
*RES
1 *427:X *428:A3 9.375 
*END

*D_NET *41 0.00122844
*CONN
*I *436:A I *D sky130_fd_sc_hd__and2_2
*I *448:A1 I *D sky130_fd_sc_hd__a2111o_2
*I *429:X O *D sky130_fd_sc_hd__or2_2
*CAP
1 *436:A 0
2 *448:A1 0.000317448
3 *429:X 1.46098e-05
4 *41:6 0.000332058
5 *448:A1 *362:B 0.000230033
6 *448:A1 *448:A2 0.000151789
7 *448:A1 *448:D1 1.19028e-05
8 *41:6 *428:B1 8.52972e-05
9 *41:6 *429:A 8.52972e-05
*RES
1 *429:X *41:6 2.395 
2 *41:6 *448:A1 10.19 
3 *41:6 *436:A 1.6 
*END

*D_NET *42 0.0029386
*CONN
*I *433:B1 I *D sky130_fd_sc_hd__a2bb2o_2
*I *432:A3 I *D sky130_fd_sc_hd__o31a_2
*I *431:B1 I *D sky130_fd_sc_hd__o21ai_2
*I *430:Y O *D sky130_fd_sc_hd__nor2_2
*CAP
1 *433:B1 7.78831e-05
2 *432:A3 0.000177099
3 *431:B1 0.000250601
4 *430:Y 6.16285e-05
5 *42:14 0.00068437
6 *42:8 0.000396181
7 *431:B1 *422:A2 8.09157e-06
8 *431:B1 *427:A1_N 0.000105748
9 *431:B1 *73:14 0.000157595
10 *431:B1 *76:16 2.76356e-05
11 *431:B1 *158:47 6.14602e-05
12 *432:A3 *365:A 4.63373e-05
13 *432:A3 *432:B1 4.82919e-05
14 *432:A3 *478:A 2.49909e-05
15 *433:B1 *433:A2_N 4.66108e-05
16 *433:B1 *103:48 8.73389e-06
17 *42:8 *430:B 6.18754e-05
18 *42:14 *430:B 8.89751e-05
19 *42:14 *433:A2_N 0.000198286
20 *42:14 *73:14 0.000118527
21 *42:14 *105:114 0.000176247
22 *42:14 *149:18 0
23 *42:14 *158:47 5.21545e-05
24 *42:14 *159:10 0
25 *42:14 *159:21 0
26 result[5] *432:A3 5.05437e-05
27 *428:A3 *431:B1 8.73389e-06
*RES
1 *430:Y *42:8 4.98 
2 *42:8 *42:14 6.78 
3 *42:14 *431:B1 8.37 
4 *42:14 *432:A3 6.465 
5 *42:8 *433:B1 4.74 
*END

*D_NET *43 0.00359875
*CONN
*I *441:B I *D sky130_fd_sc_hd__nand3_2
*I *435:A1 I *D sky130_fd_sc_hd__a21o_2
*I *440:A2 I *D sky130_fd_sc_hd__a21o_2
*I *431:Y O *D sky130_fd_sc_hd__o21ai_2
*CAP
1 *441:B 0.000300059
2 *435:A1 0.000529487
3 *440:A2 0.000453322
4 *431:Y 0
5 *43:4 0.00068275
6 *435:A1 *365:A 0.000118081
7 *435:A1 *432:A2 9.37731e-05
8 *435:A1 *432:B1 0.000132131
9 *435:A1 *149:18 9.37731e-05
10 *440:A2 *382:A 1.83756e-05
11 *440:A2 *382:B 4.66108e-05
12 *440:A2 *432:A2 8.23457e-05
13 *440:A2 *449:C1 0.000178465
14 *440:A2 *76:16 3.79854e-05
15 *440:A2 *93:22 0.00015896
16 *441:B *361:A 0.000279787
17 *441:B *432:B1 3.42384e-05
18 *441:B *435:B1 4.66108e-05
19 *441:B *440:A1 8.23457e-05
20 *441:B *441:C 5.08982e-05
21 *441:B *445:A1 2.9401e-05
22 *441:B *63:78 6.27542e-05
23 *441:B *72:6 8.65961e-05
*RES
1 *431:Y *43:4 1.6 
2 *43:4 *440:A2 8.95 
3 *43:4 *435:A1 9.245 
4 *435:A1 *441:B 9.995 
*END

*D_NET *44 9.06885e-05
*CONN
*I *435:A2 I *D sky130_fd_sc_hd__a21o_2
*I *432:X O *D sky130_fd_sc_hd__o31a_2
*CAP
1 *435:A2 2.11983e-05
2 *432:X 2.11983e-05
3 *435:A2 *432:B1 4.82919e-05
*RES
1 *432:X *435:A2 3.65 
*END

*D_NET *45 0.000235567
*CONN
*I *434:C1 I *D sky130_fd_sc_hd__a311o_2
*I *433:X O *D sky130_fd_sc_hd__a2bb2o_2
*CAP
1 *434:C1 5.24416e-05
2 *433:X 5.24416e-05
3 *434:C1 *433:A1_N 9.53428e-06
4 *434:C1 *434:B1 0
5 *434:C1 *103:48 3.45588e-05
6 *434:C1 *159:23 8.65905e-05
*RES
1 *433:X *434:C1 4.61 
*END

*D_NET *46 0.00157916
*CONN
*I *435:B1 I *D sky130_fd_sc_hd__a21o_2
*I *434:X O *D sky130_fd_sc_hd__a311o_2
*CAP
1 *435:B1 0.000293907
2 *434:X 0.000293907
3 *435:B1 *358:A_N 0
4 *435:B1 *358:B 5.95498e-05
5 *435:B1 *359:B1_N 0
6 *435:B1 *361:A 0.000183043
7 *435:B1 *383:A1 0.000183043
8 *435:B1 *383:B1 0
9 *435:B1 *429:A 0.000139523
10 *435:B1 *432:B1 3.21718e-05
11 *435:B1 *434:A3 4.82863e-05
12 *435:B1 *445:A1 5.83121e-06
13 *435:B1 *71:10 9.24484e-05
14 *435:B1 *103:48 0.000123225
15 *435:B1 *159:31 7.7615e-05
16 *441:B *435:B1 4.66108e-05
*RES
1 *434:X *435:B1 15.57 
*END

*D_NET *47 0.00196795
*CONN
*I *436:B I *D sky130_fd_sc_hd__and2_2
*I *448:A2 I *D sky130_fd_sc_hd__a2111o_2
*I *435:X O *D sky130_fd_sc_hd__a21o_2
*CAP
1 *436:B 0
2 *448:A2 0.000150651
3 *435:X 0.00022312
4 *47:10 0.000373771
5 *448:A2 *362:B 0.00026755
6 *448:A2 *448:B1 0.000119873
7 *448:A2 *448:C1 1.91597e-05
8 *448:A2 *448:D1 9.51579e-05
9 *448:A2 *449:C1 0.000132319
10 *47:10 *361:A 0.0001249
11 *47:10 *445:A1 0.0001249
12 *47:10 *449:C1 0.000184758
13 *47:10 *99:38 0
14 *47:10 *105:74 0
15 *448:A1 *448:A2 0.000151789
*RES
1 *435:X *47:10 8.67 
2 *47:10 *448:A2 8.7 
3 *47:10 *436:B 3.6 
*END

*D_NET *48 0.00109947
*CONN
*I *446:A I *D sky130_fd_sc_hd__and2_2
*I *449:A1 I *D sky130_fd_sc_hd__a211oi_2
*I *437:Y O *D sky130_fd_sc_hd__nand2_2
*CAP
1 *446:A 0.000111047
2 *449:A1 0.000104019
3 *437:Y 0
4 *48:4 0.000215066
5 *446:A *437:A 0.000235615
6 *446:A *446:B 0.000159957
7 *446:A *449:A2 0.000179068
8 *449:A1 *449:C1 9.47017e-05
*RES
1 *437:Y *48:4 1.6 
2 *48:4 *449:A1 3.445 
3 *48:4 *446:A 9.53 
*END

*D_NET *49 0.00177023
*CONN
*I *439:A I *D sky130_fd_sc_hd__inv_2
*I *444:A2 I *D sky130_fd_sc_hd__a211o_2
*I *438:Y O *D sky130_fd_sc_hd__xnor2_2
*CAP
1 *439:A 0.000232179
2 *444:A2 0.000152583
3 *438:Y 2.6834e-05
4 *49:6 0.000411596
5 *439:A *348:A 0
6 *439:A *395:A2_N 0.000150299
7 *439:A *437:B 1.22676e-05
8 *439:A *443:A 0.000309722
9 *439:A *444:C1 3.4222e-05
10 *439:A *62:71 8.65905e-05
11 *439:A *94:16 3.67779e-05
12 *439:A *105:74 7.27323e-05
13 *444:A2 *443:A 0.00011379
14 *444:A2 *160:23 3.57349e-05
15 *444:A2 *160:25 4.66108e-05
16 *49:6 *160:23 4.82919e-05
*RES
1 *438:Y *49:6 2.05 
2 *49:6 *444:A2 7.775 
3 *49:6 *439:A 11.855 
*END

*D_NET *50 0.00101722
*CONN
*I *441:C I *D sky130_fd_sc_hd__nand3_2
*I *440:B1 I *D sky130_fd_sc_hd__a21o_2
*I *439:Y O *D sky130_fd_sc_hd__inv_2
*CAP
1 *441:C 5.15446e-05
2 *440:B1 7.06912e-05
3 *439:Y 7.61841e-05
4 *50:8 0.00019842
5 *440:B1 *437:B 7.44375e-05
6 *440:B1 *440:A1 9.30717e-05
7 *440:B1 *449:C1 4.99619e-05
8 *440:B1 *63:78 2.50049e-05
9 *441:C *445:A1 0.000121817
10 *441:C *445:A3 2.68464e-05
11 *441:C *63:78 7.68414e-06
12 *50:8 *437:B 8.26692e-05
13 *50:8 *440:A1 2.92496e-05
14 *50:8 *63:78 3.50033e-05
15 *50:8 *105:74 2.37321e-05
16 *441:B *441:C 5.08982e-05
*RES
1 *439:Y *50:8 5.49 
2 *50:8 *440:B1 5.685 
3 *50:8 *441:C 5.1 
*END

*D_NET *51 0.000556904
*CONN
*I *445:A2 I *D sky130_fd_sc_hd__a31o_2
*I *440:X O *D sky130_fd_sc_hd__a21o_2
*CAP
1 *445:A2 0.00014592
2 *440:X 0.00014592
3 *445:A2 *437:A 9.71067e-05
4 *445:A2 *437:B 0.000123955
5 *445:A2 *449:C1 4.40028e-05
*RES
1 *440:X *445:A2 10.155 
*END

*D_NET *52 0.000497569
*CONN
*I *445:A3 I *D sky130_fd_sc_hd__a31o_2
*I *441:Y O *D sky130_fd_sc_hd__nand3_2
*CAP
1 *445:A3 0.000112343
2 *441:Y 0.000112343
3 *445:A3 *445:A1 3.92037e-05
4 *445:A3 *445:B1 4.89295e-05
5 *445:A3 *446:B 1.14169e-05
6 *445:A3 *63:78 0.000146486
7 *441:C *445:A3 2.68464e-05
*RES
1 *441:Y *445:A3 6.08 
*END

*D_NET *53 0.00139403
*CONN
*I *444:B1 I *D sky130_fd_sc_hd__a211o_2
*I *442:X O *D sky130_fd_sc_hd__a31o_2
*CAP
1 *444:B1 0.000405093
2 *442:X 0.000405093
3 *444:B1 *438:B 4.63425e-05
4 *444:B1 *444:A1 5.4155e-06
5 *444:B1 *103:29 0.000395098
6 *444:B1 *103:48 4.66826e-05
7 *444:B1 *150:33 9.03081e-05
*RES
1 *442:X *444:B1 13.74 
*END

*D_NET *54 0.000307185
*CONN
*I *444:C1 I *D sky130_fd_sc_hd__a211o_2
*I *443:Y O *D sky130_fd_sc_hd__nor2_2
*CAP
1 *444:C1 8.6672e-05
2 *443:Y 8.6672e-05
3 *444:C1 *348:A 4.18603e-06
4 *444:C1 *358:A_N 0
5 *444:C1 *395:A2_N 9.5433e-05
6 *439:A *444:C1 3.4222e-05
*RES
1 *443:Y *444:C1 9.09 
*END

*D_NET *55 0.00123663
*CONN
*I *445:B1 I *D sky130_fd_sc_hd__a31o_2
*I *444:X O *D sky130_fd_sc_hd__a211o_2
*CAP
1 *445:B1 0.000333602
2 *444:X 0.000333602
3 *445:B1 *355:B 0.000174729
4 *445:B1 *437:B 0.000220712
5 *445:B1 *443:A 6.09195e-05
6 *445:B1 *445:A1 2.79137e-05
7 *445:B1 *446:B 0
8 *445:B1 *94:16 3.62197e-05
9 *445:A3 *445:B1 4.89295e-05
*RES
1 *444:X *445:B1 14.325 
*END

*D_NET *56 0.000966552
*CONN
*I *446:B I *D sky130_fd_sc_hd__and2_2
*I *449:A2 I *D sky130_fd_sc_hd__a211oi_2
*I *445:X O *D sky130_fd_sc_hd__a31o_2
*CAP
1 *446:B 0.000102247
2 *449:A2 0.000113022
3 *445:X 0
4 *56:4 0.000215269
5 *446:B *437:A 9.14049e-05
6 *446:B *63:78 8.23457e-05
7 *449:A2 *437:A 1.18236e-05
8 *449:A2 *131:10 0
9 *445:A3 *446:B 1.14169e-05
10 *445:B1 *446:B 0
11 *446:A *446:B 0.000159957
12 *446:A *449:A2 0.000179068
*RES
1 *445:X *56:4 1.6 
2 *56:4 *449:A2 8 
3 *56:4 *446:B 8.285 
*END

*D_NET *57 0.00230513
*CONN
*I *448:D1 I *D sky130_fd_sc_hd__a2111o_2
*I *447:X O *D sky130_fd_sc_hd__or3_2
*CAP
1 *448:D1 0.000695892
2 *447:X 0.000695892
3 *448:D1 *351:B 0.000268146
4 *448:D1 *64:8 0.000134123
5 *448:D1 *100:16 0.000103212
6 *448:D1 *105:74 0.000145847
7 *448:D1 *134:68 0.000154956
8 *448:A1 *448:D1 1.19028e-05
9 *448:A2 *448:D1 9.51579e-05
*RES
1 *447:X *448:D1 20.235 
*END

*D_NET *58 0.00247172
*CONN
*I *449:C1 I *D sky130_fd_sc_hd__a211oi_2
*I *448:X O *D sky130_fd_sc_hd__a2111o_2
*CAP
1 *449:C1 0.000694062
2 *448:X 0.000694062
3 *449:C1 *362:B 9.05535e-05
4 *449:C1 *424:A1 6.28242e-05
5 *449:C1 *437:B 0.000161985
6 *449:C1 *449:B1 8.40213e-05
7 *449:C1 *99:38 0
8 *440:A2 *449:C1 0.000178465
9 *440:B1 *449:C1 4.99619e-05
10 *445:A2 *449:C1 4.40028e-05
11 *448:A2 *449:C1 0.000132319
12 *449:A1 *449:C1 9.47017e-05
13 *47:10 *449:C1 0.000184758
*RES
1 *448:X *449:C1 21.33 
*END

*D_NET *59 0.00317841
*CONN
*I *355:A I *D sky130_fd_sc_hd__nor2_2
*I *437:A I *D sky130_fd_sc_hd__nand2_2
*I *359:A1 I *D sky130_fd_sc_hd__a21boi_2
*I *348:Y O *D sky130_fd_sc_hd__inv_2
*CAP
1 *355:A 0
2 *437:A 0.000438576
3 *359:A1 1.8765e-05
4 *348:Y 0.000190982
5 *59:14 0.000523497
6 *59:12 0.000257139
7 *359:A1 *359:A2 8.52845e-05
8 *359:A1 *94:16 4.88478e-05
9 *437:A *384:B 0
10 *437:A *437:B 0
11 *437:A *479:A 3.79532e-05
12 *437:A *62:73 2.88598e-05
13 *59:12 *355:B 0.000199874
14 *59:12 *395:A2_N 0.000266164
15 *59:12 *479:A 5.54475e-05
16 *59:12 *103:29 0.000108393
17 *59:12 *103:48 0.0001855
18 *59:14 *359:A2 8.52883e-05
19 *59:14 *359:B1_N 8.52845e-05
20 *59:14 *94:16 0.000126604
21 *445:A2 *437:A 9.71067e-05
22 *446:A *437:A 0.000235615
23 *446:B *437:A 9.14049e-05
24 *449:A2 *437:A 1.18236e-05
*RES
1 *348:Y *59:12 11.045 
2 *59:12 *59:14 2.175 
3 *59:14 *359:A1 2.395 
4 *59:14 *437:A 17.37 
5 *59:12 *355:A 1.6 
*END

*D_NET *60 0.00147043
*CONN
*I *378:A1 I *D sky130_fd_sc_hd__a21oi_2
*I *379:A I *D sky130_fd_sc_hd__xnor2_2
*I *369:A1 I *D sky130_fd_sc_hd__o22a_2
*I *349:Y O *D sky130_fd_sc_hd__inv_2
*CAP
1 *378:A1 0
2 *379:A 0.000152151
3 *369:A1 0.00010911
4 *349:Y 2.84811e-05
5 *60:10 0.000391353
6 *60:6 0.000158573
7 *369:A1 *378:B1 0
8 *369:A1 *420:A 0
9 *369:A1 *77:17 0
10 *369:A1 *82:14 0
11 *379:A *380:A 0.000121867
12 *379:A *91:6 8.65961e-05
13 *60:6 *378:A2 8.8266e-05
14 *60:6 *423:B1 6.43122e-05
15 *60:10 *378:A2 0
16 *60:10 *381:B1 1.07797e-05
17 *60:10 *420:A 0
18 *60:10 *77:17 0
19 *60:10 *92:14 0.000162332
20 *423:A2_N *60:6 9.66106e-05
*RES
1 *349:Y *60:6 3.085 
2 *60:6 *60:10 4.655 
3 *60:10 *369:A1 5.235 
4 *60:10 *379:A 6.48 
5 *60:6 *378:A1 1.6 
*END

*D_NET *61 0.00226256
*CONN
*I *369:B2 I *D sky130_fd_sc_hd__o22a_2
*I *370:A I *D sky130_fd_sc_hd__and2_2
*I *368:A I *D sky130_fd_sc_hd__nor2_2
*I *350:Y O *D sky130_fd_sc_hd__inv_2
*CAP
1 *369:B2 0.000191911
2 *370:A 0
3 *368:A 0.000188101
4 *350:Y 0.000261436
5 *61:27 0.000191911
6 *61:10 0.000449537
7 *368:A *368:B 2.98874e-05
8 *368:A *415:A3 1.71013e-05
9 *368:A *88:14 0
10 *368:A *126:10 9.34533e-05
11 *369:B2 *369:B1 0.000300412
12 *369:B2 *371:B 8.88715e-05
13 *369:B2 *78:6 8.65961e-05
14 *369:B2 *78:13 3.66286e-05
15 *61:10 *368:B 1.0183e-05
16 *61:10 *411:B1 4.99619e-05
17 *61:10 *415:A3 0.000100308
18 *61:10 *415:B1 0
19 *61:10 *417:B1 3.52139e-06
20 *61:10 *418:A1 9.67081e-06
21 *61:10 *418:A2 2.75145e-05
22 *61:10 *418:B1 0
23 *61:10 *82:27 0.000125559
*RES
1 *350:Y *61:10 8.415 
2 *61:10 *368:A 7.095 
3 *61:10 *61:27 2 
4 *61:27 *370:A 1.6 
5 *61:27 *369:B2 6.205 
*END

*D_NET *62 0.0141181
*CONN
*I *434:B1 I *D sky130_fd_sc_hd__a311o_2
*I *437:B I *D sky130_fd_sc_hd__nand2_2
*I *393:B1 I *D sky130_fd_sc_hd__a31o_2
*I *442:B1 I *D sky130_fd_sc_hd__a31o_2
*I *426:B1 I *D sky130_fd_sc_hd__a31o_2
*I *421:B1 I *D sky130_fd_sc_hd__a31oi_2
*I *415:B1 I *D sky130_fd_sc_hd__a31o_2
*I *406:B1 I *D sky130_fd_sc_hd__a31o_2
*I *351:X O *D sky130_fd_sc_hd__and2_2
*CAP
1 *434:B1 0.000202222
2 *437:B 0.000213187
3 *393:B1 0
4 *442:B1 0.000407673
5 *426:B1 2.22896e-05
6 *421:B1 0.000309817
7 *415:B1 0.000382134
8 *406:B1 0.000591163
9 *351:X 0.000598775
10 *62:73 0.000658067
11 *62:71 0.000831701
12 *62:67 0.000979427
13 *62:45 0.000368948
14 *62:43 0.000880687
15 *62:6 0.00113731
16 *406:B1 *351:B 5.83121e-06
17 *406:B1 *353:A 5.57095e-05
18 *406:B1 *353:C_N 7.27003e-05
19 *406:B1 *376:B1 0.000110791
20 *406:B1 *387:A 2.69217e-05
21 *406:B1 *447:A 0.000121043
22 *406:B1 *447:C 8.33066e-06
23 *406:B1 *100:16 8.35118e-05
24 *406:B1 *132:30 3.81397e-05
25 *406:B1 *134:75 6.87746e-05
26 *406:B1 *151:63 8.92188e-05
27 *415:B1 *350:A 1.7635e-05
28 *415:B1 *367:B 0.000314351
29 *415:B1 *376:A2 0.000202575
30 *415:B1 *411:B1 2.79929e-05
31 *415:B1 *415:A3 0.00017375
32 *415:B1 *420:B 0.000114518
33 *415:B1 *103:64 0.000106492
34 *415:B1 *134:83 3.72007e-05
35 *415:B1 *147:12 9.53038e-05
36 *415:B1 *149:36 1.38283e-05
37 *421:B1 *92:14 0
38 *421:B1 *127:6 0.000141323
39 *426:B1 *149:26 4.77807e-05
40 *434:B1 *358:B 0
41 *434:B1 *429:A 3.60566e-05
42 *434:B1 *434:A3 4.82919e-05
43 *434:B1 *103:48 9.52621e-05
44 *434:B1 *149:18 0.000118743
45 *434:B1 *159:23 3.96653e-05
46 *434:B1 *159:31 0.000229152
47 *437:B *105:74 0
48 *442:B1 *354:A 0.000139245
49 *442:B1 *384:B 0.000300219
50 *442:B1 *385:A 1.56428e-05
51 *442:B1 *393:A1 0.000121308
52 *442:B1 *393:A3 4.66108e-05
53 *442:B1 *96:10 0
54 *442:B1 *103:16 0.000128114
55 *442:B1 *131:10 3.09233e-05
56 *442:B1 *150:24 0
57 *62:6 *351:B 6.04372e-05
58 *62:6 *149:36 0.000121036
59 *62:43 *388:A 5.09431e-05
60 *62:43 *99:6 2.69153e-05
61 *62:43 *99:23 6.92161e-05
62 *62:43 *149:26 0.00010565
63 *62:43 *149:36 3.20857e-05
64 *62:67 *425:A 0
65 *62:67 *429:A 0.000205664
66 *62:67 *431:A1 0.000178314
67 *62:67 *74:17 0.00012904
68 *62:67 *149:18 3.47754e-05
69 *62:71 *383:A2 5.05437e-05
70 *62:71 *383:B1 0.000197264
71 *62:71 *383:D1 2.51519e-05
72 *62:71 *94:16 0.0004262
73 *62:73 *479:A 4.89295e-05
74 *422:C1 *421:B1 8.8266e-05
75 *425:B *421:B1 5.31158e-06
76 *425:B *62:45 3.43232e-05
77 *425:B *62:67 0.000128934
78 *428:A1 *62:43 4.77769e-05
79 *428:A1 *62:45 2.85623e-05
80 *428:A1 *62:67 0.000259878
81 *434:C1 *434:B1 0
82 *437:A *437:B 0
83 *437:A *62:73 2.88598e-05
84 *439:A *437:B 1.22676e-05
85 *439:A *62:71 8.65905e-05
86 *440:B1 *437:B 7.44375e-05
87 *445:A2 *437:B 0.000123955
88 *445:B1 *437:B 0.000220712
89 *449:C1 *437:B 0.000161985
90 *465:A *421:B1 6.50278e-05
91 *50:8 *437:B 8.26692e-05
92 *61:10 *415:B1 0
*RES
1 *351:X *62:6 3.775 
2 *62:6 *406:B1 14.435 
3 *62:6 *415:B1 15.095 
4 *351:X *62:43 9.225 
5 *62:43 *62:45 0.87 
6 *62:45 *421:B1 9.705 
7 *62:45 *426:B1 4.05 
8 *62:43 *62:67 10.05 
9 *62:67 *62:71 9.695 
10 *62:71 *62:73 3.555 
11 *62:73 *442:B1 14.81 
12 *62:73 *393:B1 1.6 
13 *62:71 *437:B 11.525 
14 *62:67 *434:B1 9.12 
*END

*D_NET *63 0.0116221
*CONN
*I *401:A2 I *D sky130_fd_sc_hd__a21o_2
*I *400:A2 I *D sky130_fd_sc_hd__o21a_4
*I *407:B1 I *D sky130_fd_sc_hd__o32a_2
*I *429:B I *D sky130_fd_sc_hd__or2_2
*I *428:B1 I *D sky130_fd_sc_hd__o32a_2
*I *423:B1 I *D sky130_fd_sc_hd__o2bb2a_2
*I *417:B1 I *D sky130_fd_sc_hd__o32a_2
*I *352:Y O *D sky130_fd_sc_hd__nand2_2
*CAP
1 *401:A2 2.85539e-05
2 *400:A2 0
3 *407:B1 0.000394631
4 *429:B 0
5 *428:B1 0.000291068
6 *423:B1 0.000474954
7 *417:B1 0.000436396
8 *352:Y 1.31153e-05
9 *63:84 0.000841168
10 *63:78 0.00108438
11 *63:52 0.000291068
12 *63:50 0.000989668
13 *63:12 0.00106888
14 *63:8 0.000551026
15 *401:A2 *401:A1 3.13354e-05
16 *407:B1 *396:B 0
17 *407:B1 *399:A 0.000116158
18 *407:B1 *399:B 0
19 *407:B1 *403:A2 0.000110506
20 *407:B1 *403:B1 0.000102782
21 *407:B1 *404:A1 0.000119478
22 *407:B1 *404:A2 0
23 *407:B1 *407:A3 4.77769e-05
24 *407:B1 *100:46 0
25 *407:B1 *161:27 5.16418e-05
26 *417:B1 *411:B1 1.438e-05
27 *417:B1 *412:A 2.61042e-05
28 *417:B1 *416:A2_N 0.000196847
29 *417:B1 *416:B1 0.000120655
30 *417:B1 *418:A2 1.61831e-05
31 *423:B1 *349:A 4.47209e-05
32 *423:B1 *378:A2 0.000163199
33 *423:B1 *378:B1 8.40269e-05
34 *423:B1 *381:B1 4.82863e-05
35 *423:B1 *418:A2 0.000168393
36 *423:B1 *423:B2 3.26889e-05
37 *428:B1 *362:B 0.000339639
38 *428:B1 *424:B1 0.000148282
39 *428:B1 *429:A 9.72844e-05
40 *428:B1 *478:A 0.0004111
41 *63:8 *352:A 1.32026e-05
42 *63:8 *389:B 6.72833e-06
43 *63:8 *103:64 4.77769e-05
44 *63:12 *420:B 9.12857e-06
45 *63:12 *103:64 0.000134887
46 *63:50 *420:B 7.27704e-06
47 *63:50 *105:74 0.000132827
48 *63:50 *134:83 2.14921e-05
49 *63:50 *149:36 0.000131525
50 *63:78 *440:A1 0.000116158
51 *63:78 *105:74 0.000424489
52 *63:84 *401:A1 0.000230803
53 *63:84 *480:A 9.78539e-05
54 *63:84 *109:19 0.000373375
55 *63:84 *161:16 0
56 *419:A2 *63:12 0
57 *423:A2_N *423:B1 2.67184e-05
58 *428:A1 *428:B1 0.000121659
59 *440:B1 *63:78 2.50049e-05
60 *441:B *63:78 6.27542e-05
61 *441:C *63:78 7.68414e-06
62 *445:A3 *63:78 0.000146486
63 *446:B *63:78 8.23457e-05
64 *459:A *407:B1 8.19234e-05
65 *460:A *407:B1 4.89395e-05
66 *32:10 *423:B1 0.00012657
67 *32:10 *63:12 0
68 *41:6 *428:B1 8.52972e-05
69 *50:8 *63:78 3.50033e-05
70 *60:6 *423:B1 6.43122e-05
71 *61:10 *417:B1 3.52139e-06
*RES
1 *352:Y *63:8 4.05 
2 *63:8 *63:12 5.165 
3 *63:12 *417:B1 11.15 
4 *63:12 *423:B1 11.755 
5 *63:8 *63:50 6.48 
6 *63:50 *63:52 2 
7 *63:52 *428:B1 10.12 
8 *63:52 *429:B 1.6 
9 *63:50 *63:78 12.59 
10 *63:78 *63:84 7.725 
11 *63:84 *407:B1 14.315 
12 *63:84 *400:A2 1.6 
13 *63:78 *401:A2 2.215 
*END

*D_NET *64 0.000596986
*CONN
*I *482:A I *D sky130_fd_sc_hd__buf_2
*I *471:A I *D sky130_fd_sc_hd__buf_8
*I *353:X O *D sky130_fd_sc_hd__or3b_4
*CAP
1 *482:A 0.000110418
2 *471:A 0
3 *353:X 0.000106146
4 *64:8 0.000216564
5 *482:A *150:24 2.24574e-05
6 *64:8 *134:68 7.27704e-06
7 *448:D1 *64:8 0.000134123
*RES
1 *353:X *64:8 5.745 
2 *64:8 *471:A 3.6 
3 *64:8 *482:A 5.49 
*END

*D_NET *65 0.00199522
*CONN
*I *355:B I *D sky130_fd_sc_hd__nor2_2
*I *438:B I *D sky130_fd_sc_hd__xnor2_2
*I *359:A2 I *D sky130_fd_sc_hd__a21boi_2
*I *354:X O *D sky130_fd_sc_hd__xor2_2
*CAP
1 *355:B 9.6026e-05
2 *438:B 7.11093e-05
3 *359:A2 0.00012979
4 *354:X 0
5 *65:8 0.000230229
6 *65:4 0.000125355
7 *355:B *395:A2_N 3.63206e-05
8 *355:B *103:29 7.08493e-05
9 *359:A2 *384:B 0
10 *359:A2 *479:A 0.00015771
11 *359:A2 *70:6 0.000161467
12 *359:A2 *94:16 1.52352e-05
13 *359:A2 *150:24 6.63219e-06
14 *438:B *479:A 0.000179714
15 *438:B *150:24 8.31977e-06
16 *438:B *150:33 2.29223e-05
17 *65:8 *395:A2_N 4.60123e-05
18 *65:8 *103:29 4.60123e-05
19 *359:A1 *359:A2 8.52845e-05
20 *444:B1 *438:B 4.63425e-05
21 *445:B1 *355:B 0.000174729
22 *59:12 *355:B 0.000199874
23 *59:14 *359:A2 8.52883e-05
*RES
1 *354:X *65:4 1.6 
2 *65:4 *65:8 2.795 
3 *65:8 *359:A2 7.32 
4 *65:8 *438:B 5.745 
5 *65:4 *355:B 8.885 
*END

*D_NET *66 0.00186391
*CONN
*I *358:A_N I *D sky130_fd_sc_hd__nand2b_2
*I *383:B1 I *D sky130_fd_sc_hd__a2111o_2
*I *355:Y O *D sky130_fd_sc_hd__nor2_2
*CAP
1 *358:A_N 0.000144911
2 *383:B1 0.000181885
3 *355:Y 0.000214747
4 *66:8 0.000541543
5 *358:A_N *348:A 0
6 *358:A_N *359:B1_N 0.000118527
7 *358:A_N *395:A2_N 0
8 *358:A_N *434:A3 0
9 *358:A_N *159:31 0
10 *383:B1 *383:D1 3.03684e-05
11 *383:B1 *71:10 0
12 *383:B1 *105:74 0
13 *66:8 *359:B1_N 0.000109939
14 *66:8 *94:16 4.82863e-05
15 *66:8 *105:108 0.000276441
16 *435:B1 *358:A_N 0
17 *435:B1 *383:B1 0
18 *444:C1 *358:A_N 0
19 *62:71 *383:B1 0.000197264
*RES
1 *355:Y *66:8 7.845 
2 *66:8 *383:B1 7.065 
3 *66:8 *358:A_N 6.255 
*END

*D_NET *67 0.00110596
*CONN
*I *360:A_N I *D sky130_fd_sc_hd__and2b_2
*I *357:B I *D sky130_fd_sc_hd__and2b_2
*I *356:X O *D sky130_fd_sc_hd__xor2_2
*CAP
1 *360:A_N 9.10537e-06
2 *357:B 5.15293e-05
3 *356:X 0.000123884
4 *67:10 0.000184519
5 *357:B *68:10 2.49909e-05
6 *357:B *105:108 8.57024e-05
7 *360:A_N *68:10 2.75229e-05
8 *360:A_N *105:108 3.83041e-05
9 *67:10 *430:A 8.69088e-05
10 *67:10 *434:A3 0
11 *67:10 *68:10 0.000179015
12 *67:10 *149:10 0.00011379
13 *67:10 *149:18 0.000180689
14 *67:10 *159:10 0
15 *67:10 *159:21 0
*RES
1 *356:X *67:10 9.275 
2 *67:10 *357:B 2.755 
3 *67:10 *360:A_N 2.05 
*END

*D_NET *68 0.00187646
*CONN
*I *430:A I *D sky130_fd_sc_hd__nor2_2
*I *358:B I *D sky130_fd_sc_hd__nand2b_2
*I *357:X O *D sky130_fd_sc_hd__and2b_2
*CAP
1 *430:A 0.000144224
2 *358:B 0.000288352
3 *357:X 0.000142749
4 *68:10 0.000575324
5 *358:B *434:A3 1.91597e-05
6 *358:B *103:48 2.16833e-05
7 *358:B *159:23 0.000119756
8 *358:B *159:31 0.0001249
9 *430:A *430:B 0
10 *430:A *434:A3 0
11 *68:10 *159:21 6.23288e-05
12 *357:B *68:10 2.49909e-05
13 *360:A_N *68:10 2.75229e-05
14 *434:B1 *358:B 0
15 *435:B1 *358:B 5.95498e-05
16 *67:10 *430:A 8.69088e-05
17 *67:10 *68:10 0.000179015
*RES
1 *357:X *68:10 6.54 
2 *68:10 *358:B 7.875 
3 *68:10 *430:A 6.12 
*END

*D_NET *69 0.00140388
*CONN
*I *359:B1_N I *D sky130_fd_sc_hd__a21boi_2
*I *358:Y O *D sky130_fd_sc_hd__nand2b_2
*CAP
1 *359:B1_N 0.000369536
2 *358:Y 0.000369536
3 *359:B1_N *94:16 3.71978e-05
4 *359:B1_N *105:108 0.000313857
5 *358:A_N *359:B1_N 0.000118527
6 *435:B1 *359:B1_N 0
7 *59:14 *359:B1_N 8.52845e-05
8 *66:8 *359:B1_N 0.000109939
*RES
1 *358:Y *359:B1_N 14.895 
*END

*D_NET *70 0.00238204
*CONN
*I *397:A I *D sky130_fd_sc_hd__and3_4
*I *390:A1 I *D sky130_fd_sc_hd__a211o_2
*I *359:Y O *D sky130_fd_sc_hd__a21boi_2
*CAP
1 *397:A 0
2 *390:A1 0.000282632
3 *359:Y 0.000246193
4 *70:6 0.000528824
5 *390:A1 *390:A2 0.000464811
6 *390:A1 *390:B1 1.14559e-05
7 *390:A1 *396:A 0.000202095
8 *390:A1 *396:B 0.000309729
9 *390:A1 *397:B 3.31103e-05
10 *390:A1 *397:C 1.56428e-05
11 *390:A1 *398:D_N 2.23407e-05
12 *70:6 *397:B 8.39278e-05
13 *70:6 *94:16 1.98144e-05
14 *359:A2 *70:6 0.000161467
15 *459:A *390:A1 0
*RES
1 *359:Y *70:6 5.845 
2 *70:6 *390:A1 13.565 
3 *70:6 *397:A 1.6 
*END

*D_NET *71 0.00303549
*CONN
*I *430:B I *D sky130_fd_sc_hd__nor2_2
*I *383:C1 I *D sky130_fd_sc_hd__a2111o_2
*I *361:A I *D sky130_fd_sc_hd__inv_2
*I *360:X O *D sky130_fd_sc_hd__and2b_2
*CAP
1 *430:B 0.000139694
2 *383:C1 0
3 *361:A 0.000171554
4 *360:X 0.000654534
5 *71:10 0.000686394
6 *361:A *445:A1 9.07709e-05
7 *430:B *159:21 8.70923e-05
8 *71:10 *357:A_N 4.82919e-05
9 *71:10 *105:108 0.000326124
10 *383:B1 *71:10 0
11 *430:A *430:B 0
12 *435:B1 *361:A 0.000183043
13 *435:B1 *71:10 9.24484e-05
14 *441:B *361:A 0.000279787
15 *42:8 *430:B 6.18754e-05
16 *42:14 *430:B 8.89751e-05
17 *47:10 *361:A 0.0001249
*RES
1 *360:X *71:10 10.86 
2 *71:10 *361:A 8.715 
3 *71:10 *383:C1 3.6 
4 *360:X *430:B 10.62 
*END

*D_NET *72 0.000661666
*CONN
*I *441:A I *D sky130_fd_sc_hd__nand3_2
*I *440:A1 I *D sky130_fd_sc_hd__a21o_2
*I *361:Y O *D sky130_fd_sc_hd__inv_2
*CAP
1 *441:A 0
2 *440:A1 6.78376e-05
3 *361:Y 1.48487e-05
4 *72:6 8.26863e-05
5 *440:A1 *445:A1 4.41506e-05
6 *72:6 *445:A1 4.47209e-05
7 *440:B1 *440:A1 9.30717e-05
8 *441:B *440:A1 8.23457e-05
9 *441:B *72:6 8.65961e-05
10 *50:8 *440:A1 2.92496e-05
11 *63:78 *440:A1 0.000116158
*RES
1 *361:Y *72:6 2.395 
2 *72:6 *440:A1 7.775 
3 *72:6 *441:A 1.6 
*END

*D_NET *73 0.00233663
*CONN
*I *363:A_N I *D sky130_fd_sc_hd__and2b_2
*I *364:B I *D sky130_fd_sc_hd__and2b_2
*I *362:X O *D sky130_fd_sc_hd__xor2_2
*CAP
1 *363:A_N 0.000120232
2 *364:B 0
3 *362:X 0.000504625
4 *73:14 0.000624858
5 *363:A_N *363:B 4.82863e-05
6 *363:A_N *159:10 9.52646e-05
7 *73:14 *362:A 1.21396e-05
8 *73:14 *362:B 2.91561e-06
9 *73:14 *422:A2 9.79045e-05
10 *73:14 *103:56 0.000169508
11 *73:14 *105:114 0.000314445
12 *73:14 *141:8 7.03276e-05
13 *73:14 *158:34 0
14 *73:14 *158:47 0
15 *431:B1 *73:14 0.000157595
16 *42:14 *73:14 0.000118527
*RES
1 *362:X *73:14 15.725 
2 *73:14 *364:B 1.6 
3 *73:14 *363:A_N 4.045 
*END

*D_NET *74 0.00300974
*CONN
*I *432:A1 I *D sky130_fd_sc_hd__o31a_2
*I *365:A I *D sky130_fd_sc_hd__nor2_2
*I *431:A1 I *D sky130_fd_sc_hd__o21ai_2
*I *383:D1 I *D sky130_fd_sc_hd__a2111o_2
*I *363:X O *D sky130_fd_sc_hd__and2b_2
*CAP
1 *432:A1 0
2 *365:A 0.000249999
3 *431:A1 5.97178e-05
4 *383:D1 0.000246039
5 *363:X 2.88526e-05
6 *74:28 0.000249999
7 *74:17 0.000106172
8 *74:6 0.000321345
9 *365:A *432:B1 0.000140657
10 *365:A *478:A 4.66108e-05
11 *365:A *76:6 8.40269e-05
12 *365:A *76:10 0.000340209
13 *383:D1 *383:A2 6.97034e-05
14 *431:A1 *432:A2 0.000155928
15 *431:A1 *149:18 9.29751e-06
16 *74:6 *383:A2 2.75229e-05
17 *74:17 *432:A2 8.53113e-06
18 *74:17 *149:18 6.99988e-05
19 result[5] *365:A 0.00026784
20 *383:B1 *383:D1 3.03684e-05
21 *432:A3 *365:A 4.63373e-05
22 *435:A1 *365:A 0.000118081
23 *62:67 *431:A1 0.000178314
24 *62:67 *74:17 0.00012904
25 *62:71 *383:D1 2.51519e-05
*RES
1 *363:X *74:6 2.05 
2 *74:6 *383:D1 4.465 
3 *74:6 *74:17 3.635 
4 *74:17 *431:A1 5.745 
5 *74:17 *74:28 2 
6 *74:28 *365:A 8.74 
7 *74:28 *432:A1 1.6 
*END

*D_NET *75 0.000588409
*CONN
*I *365:B I *D sky130_fd_sc_hd__nor2_2
*I *364:X O *D sky130_fd_sc_hd__and2b_2
*CAP
1 *365:B 0.00024747
2 *364:X 0.00024747
3 *365:B *103:50 0
4 *365:B *159:10 2.31329e-05
5 result[5] *365:B 2.97004e-06
6 *467:A *365:B 6.73665e-05
*RES
1 *364:X *365:B 11.265 
*END

*D_NET *76 0.00387756
*CONN
*I *427:B2 I *D sky130_fd_sc_hd__a2bb2o_2
*I *383:A2 I *D sky130_fd_sc_hd__a2111o_2
*I *424:A1 I *D sky130_fd_sc_hd__o21ai_2
*I *382:A I *D sky130_fd_sc_hd__and2_2
*I *365:Y O *D sky130_fd_sc_hd__nor2_2
*CAP
1 *427:B2 2.70037e-05
2 *383:A2 0.000227631
3 *424:A1 5.71495e-05
4 *382:A 4.96798e-05
5 *365:Y 8.652e-05
6 *76:16 0.000449156
7 *76:10 0.000819392
8 *76:6 0.000362957
9 *383:A2 *363:B 8.65905e-05
10 *383:A2 *478:A 4.21314e-05
11 *383:A2 *149:18 6.7449e-05
12 *383:A2 *158:47 0.000120228
13 *424:A1 *99:38 0.000159317
14 *427:B2 *103:50 9.5433e-05
15 *76:16 *382:B 2.49909e-05
16 *76:16 *432:A2 4.47209e-05
17 *76:16 *478:A 0.000162332
18 *76:16 *93:22 9.2741e-05
19 *76:16 *158:34 3.05373e-05
20 *76:16 *158:47 5.7344e-05
21 result[5] *427:B2 9.5433e-05
22 *365:A *76:6 8.40269e-05
23 *365:A *76:10 0.000340209
24 *383:D1 *383:A2 6.97034e-05
25 *431:B1 *76:16 2.76356e-05
26 *440:A2 *382:A 1.83756e-05
27 *440:A2 *76:16 3.79854e-05
28 *449:C1 *424:A1 6.28242e-05
29 *62:71 *383:A2 5.05437e-05
30 *74:6 *383:A2 2.75229e-05
*RES
1 *365:Y *76:6 2.74 
2 *76:6 *76:10 5.21 
3 *76:10 *76:16 8.48 
4 *76:16 *382:A 2.41 
5 *76:16 *424:A1 7.49 
6 *76:10 *383:A2 9.12 
7 *76:6 *427:B2 6.725 
*END

*D_NET *77 0.00149801
*CONN
*I *378:A2 I *D sky130_fd_sc_hd__a21oi_2
*I *379:B I *D sky130_fd_sc_hd__xnor2_2
*I *369:A2 I *D sky130_fd_sc_hd__o22a_2
*I *366:X O *D sky130_fd_sc_hd__xor2_2
*CAP
1 *378:A2 0.000151313
2 *379:B 0
3 *369:A2 0.000169198
4 *366:X 9.69058e-05
5 *77:17 0.000327395
6 *77:6 0.000442186
7 *378:A2 *349:A 4.82863e-05
8 *378:A2 *422:B2 0
9 *77:17 *366:B 0
10 *77:17 *422:B2 0
11 *369:A1 *77:17 0
12 *423:A2_N *378:A2 1.12578e-05
13 *423:B1 *378:A2 0.000163199
14 *60:6 *378:A2 8.8266e-05
15 *60:10 *378:A2 0
16 *60:10 *77:17 0
*RES
1 *366:X *77:6 3.085 
2 *77:6 *369:A2 4.12 
3 *77:6 *77:17 4.4 
4 *77:17 *379:B 3.6 
5 *77:17 *378:A2 6.975 
*END

*D_NET *78 0.00121563
*CONN
*I *369:B1 I *D sky130_fd_sc_hd__o22a_2
*I *368:B I *D sky130_fd_sc_hd__nor2_2
*I *370:B I *D sky130_fd_sc_hd__and2_2
*I *367:X O *D sky130_fd_sc_hd__xor2_2
*CAP
1 *369:B1 0.000131379
2 *368:B 0.000109084
3 *370:B 0
4 *367:X 6.23048e-05
5 *78:13 0.000262063
6 *78:6 8.39057e-05
7 *368:B *371:B 0
8 *368:B *418:B1 0.000103185
9 *368:A *368:B 2.98874e-05
10 *369:B2 *369:B1 0.000300412
11 *369:B2 *78:6 8.65961e-05
12 *369:B2 *78:13 3.66286e-05
13 *61:10 *368:B 1.0183e-05
*RES
1 *367:X *78:6 2.74 
2 *78:6 *370:B 1.6 
3 *78:6 *78:13 0.45 
4 *78:13 *368:B 8 
5 *78:13 *369:B1 4.465 
*END

*D_NET *79 0.0012044
*CONN
*I *418:B1 I *D sky130_fd_sc_hd__a21oi_2
*I *371:A I *D sky130_fd_sc_hd__nor2_2
*I *368:Y O *D sky130_fd_sc_hd__nor2_2
*CAP
1 *418:B1 0.00026626
2 *371:A 6.33237e-05
3 *368:Y 0
4 *79:4 0.000329584
5 *371:A *82:14 3.00381e-05
6 *418:B1 *371:B 1.01661e-05
7 *418:B1 *418:A1 0
8 *418:B1 *487:A 8.97642e-05
9 *418:B1 *82:14 0.000312083
10 *418:B1 *82:27 0
11 *368:B *418:B1 0.000103185
12 *61:10 *418:B1 0
*RES
1 *368:Y *79:4 1.6 
2 *79:4 *371:A 2.755 
3 *79:4 *418:B1 11.57 
*END

*D_NET *80 0.000819903
*CONN
*I *378:B1 I *D sky130_fd_sc_hd__a21oi_2
*I *369:X O *D sky130_fd_sc_hd__o22a_2
*CAP
1 *378:B1 0.000181806
2 *369:X 0.000181806
3 *378:B1 *418:A2 1.08758e-05
4 *378:B1 *420:A 0.000227543
5 *378:B1 *487:A 8.97642e-05
6 *378:B1 *82:14 4.40812e-05
7 *369:A1 *378:B1 0
8 *423:B1 *378:B1 8.40269e-05
*RES
1 *369:X *378:B1 11.415 
*END

*D_NET *81 0.000634856
*CONN
*I *371:B I *D sky130_fd_sc_hd__nor2_2
*I *370:X O *D sky130_fd_sc_hd__and2_2
*CAP
1 *371:B 0.000229037
2 *370:X 0.000229037
3 *371:B *82:14 7.77446e-05
4 *368:B *371:B 0
5 *369:B2 *371:B 8.88715e-05
6 *418:B1 *371:B 1.01661e-05
*RES
1 *370:X *371:B 10.77 
*END

*D_NET *82 0.00413716
*CONN
*I *381:A1 I *D sky130_fd_sc_hd__a31o_4
*I *418:A1 I *D sky130_fd_sc_hd__a21oi_2
*I *416:B2 I *D sky130_fd_sc_hd__a2bb2o_2
*I *413:A1 I *D sky130_fd_sc_hd__a21oi_2
*I *414:A1 I *D sky130_fd_sc_hd__o21a_2
*I *371:Y O *D sky130_fd_sc_hd__nor2_2
*CAP
1 *381:A1 0
2 *418:A1 4.94305e-05
3 *416:B2 4.14078e-05
4 *413:A1 0.000742193
5 *414:A1 4.92635e-05
6 *371:Y 0.000276592
7 *82:31 0.00102047
8 *82:27 0.000356308
9 *82:16 0.000170406
10 *82:14 0.000327724
11 *413:A1 *350:A 0.000150411
12 *413:A1 *372:B 0
13 *413:A1 *475:A 0
14 *413:A1 *88:29 0
15 *414:A1 *381:A3 4.82863e-05
16 *416:B2 *367:B 5.93727e-05
17 *418:A1 *411:B1 2.24423e-05
18 *418:A1 *487:A 0
19 *82:14 *381:A2 4.66742e-05
20 *82:14 *487:A 4.66108e-05
21 *82:31 *350:A 0.000130395
22 *369:A1 *82:14 0
23 *371:A *82:14 3.00381e-05
24 *371:B *82:14 7.77446e-05
25 *378:B1 *82:14 4.40812e-05
26 *418:B1 *418:A1 0
27 *418:B1 *82:14 0.000312083
28 *418:B1 *82:27 0
29 *61:10 *418:A1 9.67081e-06
30 *61:10 *82:27 0.000125559
*RES
1 *371:Y *82:14 11.9 
2 *82:14 *82:16 0.795 
3 *82:16 *414:A1 2.395 
4 *82:16 *82:27 3.5075 
5 *82:27 *82:31 0.945867 
6 *82:31 *413:A1 5.5147 
7 *82:31 *416:B2 4.8425 
8 *82:27 *418:A1 4.5975 
9 *82:14 *381:A1 1.6 
*END

*D_NET *83 0.00240289
*CONN
*I *373:A_N I *D sky130_fd_sc_hd__and2b_2
*I *374:A I *D sky130_fd_sc_hd__xnor2_2
*I *372:X O *D sky130_fd_sc_hd__xor2_2
*CAP
1 *373:A_N 0.000842664
2 *374:A 0
3 *372:X 0.000109869
4 *83:8 0.000952532
5 *373:A_N *372:B 0
6 *373:A_N *373:B 1.37328e-05
7 *373:A_N *376:A1 6.36837e-05
8 *373:A_N *410:A1 0
9 *373:A_N *411:B2 0
10 *373:A_N *412:C 7.4027e-05
11 *373:A_N *447:B 0
12 *373:A_N *474:A 0.000206059
13 *373:A_N *85:23 0
14 *373:A_N *105:43 0
15 *373:A_N *135:23 0
16 *373:A_N *162:6 8.49205e-05
17 *373:A_N *162:10 1.49561e-05
18 *83:8 *372:B 0
19 *83:8 *377:A1 4.04491e-05
20 *83:8 *85:23 0
*RES
1 *372:X *83:8 5.745 
2 *83:8 *374:A 3.6 
3 *83:8 *373:A_N 15.885 
*END

*D_NET *84 0.00261434
*CONN
*I *377:B1 I *D sky130_fd_sc_hd__a21o_4
*I *373:X O *D sky130_fd_sc_hd__and2b_2
*CAP
1 *377:B1 0.000524132
2 *373:X 0.000524132
3 *377:B1 *373:B 0.000230435
4 *377:B1 *374:B 0.000220445
5 *377:B1 *377:A2 0.000112182
6 *377:B1 *412:C 0.000230803
7 *377:B1 *415:A1 0.000243539
8 *377:B1 *416:A2_N 0.000232111
9 *377:B1 *447:C 8.28738e-05
10 *377:B1 *475:A 8.53113e-06
11 *377:B1 *87:12 4.75576e-05
12 *377:B1 *135:23 0.000157602
*RES
1 *373:X *377:B1 23.41 
*END

*D_NET *85 0.00215489
*CONN
*I *411:B2 I *D sky130_fd_sc_hd__a2bb2o_2
*I *409:A1 I *D sky130_fd_sc_hd__o21a_2
*I *408:A1 I *D sky130_fd_sc_hd__a21oi_2
*I *377:A1 I *D sky130_fd_sc_hd__a21o_4
*I *374:Y O *D sky130_fd_sc_hd__xnor2_2
*CAP
1 *411:B2 0.000140337
2 *409:A1 0
3 *408:A1 8.39049e-05
4 *377:A1 0.000107394
5 *374:Y 6.72027e-05
6 *85:25 8.39049e-05
7 *85:23 0.000248289
8 *85:8 0.000282549
9 *377:A1 *372:B 0
10 *377:A1 *377:A2 0.000138282
11 *408:A1 *408:B1 0.000149307
12 *408:A1 *409:B1 1.91597e-05
13 *408:A1 *412:A 0.000193801
14 *408:A1 *413:B1 9.53428e-06
15 *411:B2 *374:B 1.07797e-05
16 *411:B2 *377:A2 5.16348e-05
17 *411:B2 *411:A2_N 2.75229e-05
18 *411:B2 *411:B1 3.26889e-05
19 *411:B2 *412:B 0.000120655
20 *411:B2 *416:A2_N 3.96653e-05
21 *411:B2 *135:23 4.31189e-05
22 *411:B2 *135:27 0
23 *85:8 *374:B 8.40269e-05
24 *85:23 *377:A2 0.000180682
25 *373:A_N *411:B2 0
26 *373:A_N *85:23 0
27 *83:8 *377:A1 4.04491e-05
28 *83:8 *85:23 0
*RES
1 *374:Y *85:8 4.74 
2 *85:8 *377:A1 6.3 
3 *85:8 *85:23 2.145 
4 *85:23 *85:25 2 
5 *85:25 *408:A1 4.15 
6 *85:25 *409:A1 1.6 
7 *85:23 *411:B2 6.99 
*END

*D_NET *86 0.000880535
*CONN
*I *376:B1 I *D sky130_fd_sc_hd__o21ai_2
*I *375:Y O *D sky130_fd_sc_hd__nand2_2
*CAP
1 *376:B1 0.000161831
2 *375:Y 0.000161831
3 *376:B1 *412:C 2.63406e-05
4 *376:B1 *447:C 9.82748e-05
5 *376:B1 *474:A 8.49205e-05
6 *376:B1 *87:12 4.66108e-05
7 *376:B1 *100:16 1.84465e-05
8 *376:B1 *100:20 0.000103473
9 *376:B1 *100:46 5.51172e-05
10 *376:B1 *151:63 1.28996e-05
11 *406:B1 *376:B1 0.000110791
*RES
1 *375:Y *376:B1 11.925 
*END

*D_NET *87 0.00257536
*CONN
*I *377:A2 I *D sky130_fd_sc_hd__a21o_4
*I *409:A2 I *D sky130_fd_sc_hd__o21a_2
*I *408:A2 I *D sky130_fd_sc_hd__a21oi_2
*I *376:Y O *D sky130_fd_sc_hd__o21ai_2
*CAP
1 *377:A2 0.00012214
2 *409:A2 2.01995e-05
3 *408:A2 0
4 *376:Y 0.000175429
5 *87:21 0.000280385
6 *87:12 0.000313473
7 *377:A2 *374:B 0.000199727
8 *409:A2 *409:B1 8.40213e-05
9 *409:A2 *135:8 8.40213e-05
10 *87:12 *412:C 8.40213e-05
11 *87:12 *447:C 5.70461e-06
12 *87:12 *474:A 2.16833e-05
13 *87:12 *475:A 7.29248e-05
14 *87:12 *100:20 0.000302361
15 *87:21 *408:B1 0.000117409
16 *87:21 *409:B1 3.57349e-05
17 *87:21 *413:B1 3.25635e-05
18 *87:21 *135:8 4.66108e-05
19 *376:B1 *87:12 4.66108e-05
20 *377:A1 *377:A2 0.000138282
21 *377:B1 *377:A2 0.000112182
22 *377:B1 *87:12 4.75576e-05
23 *411:B2 *377:A2 5.16348e-05
24 *85:23 *377:A2 0.000180682
*RES
1 *376:Y *87:12 10.07 
2 *87:12 *408:A2 1.6 
3 *87:12 *87:21 2.535 
4 *87:21 *409:A2 2.395 
5 *87:21 *377:A2 10.295 
*END

*D_NET *88 0.00331039
*CONN
*I *487:A I *D sky130_fd_sc_hd__buf_2
*I *414:A2 I *D sky130_fd_sc_hd__o21a_2
*I *381:A3 I *D sky130_fd_sc_hd__a31o_4
*I *413:A2 I *D sky130_fd_sc_hd__a21oi_2
*I *377:X O *D sky130_fd_sc_hd__a21o_4
*CAP
1 *487:A 0.000113815
2 *414:A2 0
3 *381:A3 0.000176168
4 *413:A2 1.5611e-05
5 *377:X 0.000463056
6 *88:29 0.000227476
7 *88:14 0.000643791
8 *381:A3 *415:A3 1.08758e-05
9 *413:A2 *414:B1 8.52845e-05
10 *413:A2 *415:A1 8.52845e-05
11 *487:A *381:A2 1.47347e-05
12 *487:A *420:A 1.01661e-05
13 *88:14 *412:A 4.86642e-05
14 *88:14 *415:A2 5.97883e-06
15 *88:14 *475:A 0
16 *88:14 *146:10 0.000301843
17 *88:29 *412:A 4.72463e-05
18 *88:29 *414:B1 0.000342056
19 *88:29 *415:A3 3.63661e-05
20 *88:29 *417:A1 0.000269966
21 *88:29 *475:A 0
22 result[2] *88:14 0.000137578
23 *368:A *88:14 0
24 *378:B1 *487:A 8.97642e-05
25 *413:A1 *88:29 0
26 *414:A1 *381:A3 4.82863e-05
27 *418:A1 *487:A 0
28 *418:B1 *487:A 8.97642e-05
29 *82:14 *487:A 4.66108e-05
*RES
1 *377:X *88:14 12.675 
2 *88:14 *413:A2 4.395 
3 *88:14 *88:29 6.515 
4 *88:29 *381:A3 2.755 
5 *88:29 *414:A2 1.6 
6 *381:A3 *487:A 10.14 
*END

*D_NET *89 0.00073466
*CONN
*I *381:B1 I *D sky130_fd_sc_hd__a31o_4
*I *378:Y O *D sky130_fd_sc_hd__a21oi_2
*CAP
1 *381:B1 0.00018606
2 *378:Y 0.00018606
3 *381:B1 *381:A2 3.03684e-05
4 *381:B1 *420:A 5.72091e-05
5 *381:B1 *91:6 5.0751e-05
6 *381:B1 *92:14 0.000165146
7 *423:B1 *381:B1 4.82863e-05
8 *60:10 *381:B1 1.07797e-05
*RES
1 *378:Y *381:B1 11.475 
*END

*D_NET *90 0.00180169
*CONN
*I *380:A I *D sky130_fd_sc_hd__inv_2
*I *422:B2 I *D sky130_fd_sc_hd__o221a_2
*I *379:Y O *D sky130_fd_sc_hd__xnor2_2
*CAP
1 *380:A 0.000194564
2 *422:B2 0.00030952
3 *379:Y 0.00012348
4 *90:6 0.000627564
5 *422:B2 *366:B 0
6 *422:B2 *448:B1 1.94636e-05
7 *422:B2 *157:10 0.000145925
8 *422:B2 *157:16 0.000178357
9 *378:A2 *422:B2 0
10 *379:A *380:A 0.000121867
11 *422:C1 *422:B2 4.7829e-05
12 *455:A *422:B2 3.31217e-05
13 *77:17 *422:B2 0
*RES
1 *379:Y *90:6 3.43 
2 *90:6 *422:B2 11.57 
3 *90:6 *380:A 5.2 
*END

*D_NET *91 0.00177583
*CONN
*I *420:A I *D sky130_fd_sc_hd__or3_2
*I *381:A2 I *D sky130_fd_sc_hd__a31o_4
*I *380:Y O *D sky130_fd_sc_hd__inv_2
*CAP
1 *420:A 0.000189522
2 *381:A2 0.000204554
3 *380:Y 0.000186801
4 *91:6 0.000580877
5 *420:A *92:14 0
6 *91:6 *92:14 1.33293e-05
7 *369:A1 *420:A 0
8 *378:B1 *420:A 0.000227543
9 *379:A *91:6 8.65961e-05
10 *381:B1 *381:A2 3.03684e-05
11 *381:B1 *420:A 5.72091e-05
12 *381:B1 *91:6 5.0751e-05
13 *419:A2 *420:A 2.97004e-06
14 *423:A2_N *420:A 2.87867e-05
15 *487:A *381:A2 1.47347e-05
16 *487:A *420:A 1.01661e-05
17 *32:10 *420:A 4.49498e-05
18 *60:10 *420:A 0
19 *82:14 *381:A2 4.66742e-05
*RES
1 *380:Y *91:6 4.12 
2 *91:6 *381:A2 4.135 
3 *91:6 *420:A 10.295 
*END

*D_NET *92 0.00387357
*CONN
*I *383:A1 I *D sky130_fd_sc_hd__a2111o_2
*I *382:B I *D sky130_fd_sc_hd__and2_2
*I *424:A2 I *D sky130_fd_sc_hd__o21ai_2
*I *381:X O *D sky130_fd_sc_hd__a31o_4
*CAP
1 *383:A1 0.000170445
2 *382:B 1.65033e-05
3 *424:A2 0
4 *381:X 0.000649232
5 *92:23 0.000245439
6 *92:14 0.000707722
7 *383:A1 *429:A 0.000332809
8 *383:A1 *99:38 5.65627e-05
9 *92:14 *425:A 0.000336947
10 *92:14 *99:23 0.000276754
11 *92:14 *99:38 5.0096e-05
12 *92:23 *425:A 0.000137904
13 *92:23 *429:A 3.13459e-05
14 *92:23 *99:38 0.000193998
15 *381:B1 *92:14 0.000165146
16 *419:A2 *92:14 0
17 *420:A *92:14 0
18 *421:B1 *92:14 0
19 *423:A2_N *92:14 7.23602e-05
20 *435:B1 *383:A1 0.000183043
21 *440:A2 *382:B 4.66108e-05
22 *455:A *92:14 0
23 *60:10 *92:14 0.000162332
24 *76:16 *382:B 2.49909e-05
25 *91:6 *92:14 1.33293e-05
*RES
1 *381:X *92:14 16.785 
2 *92:14 *424:A2 3.6 
3 *92:14 *92:23 2.4 
4 *92:23 *382:B 4.05 
5 *92:23 *383:A1 7.98 
*END

*D_NET *93 0.00206211
*CONN
*I *432:A2 I *D sky130_fd_sc_hd__o31a_2
*I *431:A2 I *D sky130_fd_sc_hd__o21ai_2
*I *425:A I *D sky130_fd_sc_hd__nor2_2
*I *382:X O *D sky130_fd_sc_hd__and2_2
*CAP
1 *432:A2 7.64068e-05
2 *431:A2 0
3 *425:A 0.000208958
4 *382:X 0.000246047
5 *93:22 0.000113496
6 *425:A *429:A 9.54469e-05
7 *432:A2 *149:18 4.30747e-05
8 *425:B *425:A 0.000166833
9 *431:A1 *432:A2 0.000155928
10 *435:A1 *432:A2 9.37731e-05
11 *440:A2 *432:A2 8.23457e-05
12 *440:A2 *93:22 0.00015896
13 *62:67 *425:A 0
14 *74:17 *432:A2 8.53113e-06
15 *76:16 *432:A2 4.47209e-05
16 *76:16 *93:22 9.2741e-05
17 *92:14 *425:A 0.000336947
18 *92:23 *425:A 0.000137904
*RES
1 *382:X *425:A 12.915 
2 *382:X *93:22 3.085 
3 *93:22 *431:A2 1.6 
4 *93:22 *432:A2 8.285 
*END

*D_NET *94 0.0029011
*CONN
*I *486:A I *D sky130_fd_sc_hd__buf_2
*I *397:B I *D sky130_fd_sc_hd__and3_4
*I *383:X O *D sky130_fd_sc_hd__a2111o_2
*CAP
1 *486:A 2.09808e-05
2 *397:B 0.000102467
3 *383:X 0.000753654
4 *94:16 0.000877101
5 *397:B *390:A2 0.00023468
6 *359:A1 *94:16 4.88478e-05
7 *359:A2 *94:16 1.52352e-05
8 *359:B1_N *94:16 3.71978e-05
9 *390:A1 *397:B 3.31103e-05
10 *439:A *94:16 3.67779e-05
11 *445:B1 *94:16 3.62197e-05
12 *59:14 *94:16 0.000126604
13 *62:71 *94:16 0.0004262
14 *66:8 *94:16 4.82863e-05
15 *70:6 *397:B 8.39278e-05
16 *70:6 *94:16 1.98144e-05
*RES
1 *383:X *94:16 16.01 
2 *94:16 *397:B 4.465 
3 *94:16 *486:A 1.96 
*END

*D_NET *95 0.000207123
*CONN
*I *385:B I *D sky130_fd_sc_hd__xnor2_2
*I *384:Y O *D sky130_fd_sc_hd__xnor2_2
*CAP
1 *385:B 9.30896e-05
2 *384:Y 9.30896e-05
3 *385:B *96:10 0
4 *385:B *148:10 0
5 *459:A *385:B 2.09442e-05
*RES
1 *384:Y *385:B 8.835 
*END

*D_NET *96 0.00178106
*CONN
*I *386:A I *D sky130_fd_sc_hd__inv_2
*I *390:B1 I *D sky130_fd_sc_hd__a211o_2
*I *385:Y O *D sky130_fd_sc_hd__xnor2_2
*CAP
1 *386:A 0
2 *390:B1 0.000317295
3 *385:Y 0.000149009
4 *96:10 0.000466304
5 *390:B1 *396:A 0.000178666
6 *390:B1 *396:B 0.000167886
7 *390:B1 *449:B1 0.000136877
8 *390:B1 *103:16 0.000308758
9 *96:10 *385:A 2.77183e-05
10 *96:10 *103:16 1.70935e-05
11 *385:B *96:10 0
12 *390:A1 *390:B1 1.14559e-05
13 *442:B1 *96:10 0
*RES
1 *385:Y *96:10 5.775 
2 *96:10 *390:B1 12.315 
3 *96:10 *386:A 3.6 
*END

*D_NET *97 0.00133075
*CONN
*I *395:B2 I *D sky130_fd_sc_hd__a2bb2o_2
*I *396:A I *D sky130_fd_sc_hd__nor2_2
*I *386:Y O *D sky130_fd_sc_hd__inv_2
*CAP
1 *395:B2 0
2 *396:A 0.000226078
3 *386:Y 4.2697e-05
4 *97:8 0.000268775
5 *396:A *396:B 1.91597e-05
6 *396:A *398:A 6.33103e-05
7 *396:A *398:C 0
8 *396:A *399:B 8.23457e-05
9 *97:8 *384:B 0.000131871
10 *97:8 *395:A2_N 0.000115751
11 *390:A1 *396:A 0.000202095
12 *390:B1 *396:A 0.000178666
*RES
1 *386:Y *97:8 3.1 
2 *97:8 *396:A 10.67 
3 *97:8 *395:B2 1.6 
*END

*D_NET *98 0.000889167
*CONN
*I *392:A2 I *D sky130_fd_sc_hd__a21o_2
*I *387:Y O *D sky130_fd_sc_hd__nor2_2
*CAP
1 *392:A2 0.000353386
2 *387:Y 0.000353386
3 *392:A2 *392:A1 6.9669e-05
4 *392:A2 *392:B1 5.83121e-06
5 *392:A2 *393:A1 3.70548e-05
6 *392:A2 *105:12 9.5799e-06
7 *392:A2 *131:10 8.33066e-06
8 *392:A2 *151:74 3.46795e-05
9 *392:A2 *151:100 1.72491e-05
*RES
1 *387:Y *392:A2 12.78 
*END

*D_NET *99 0.00502379
*CONN
*I *432:B1 I *D sky130_fd_sc_hd__o31a_2
*I *445:A1 I *D sky130_fd_sc_hd__a31o_2
*I *424:B1 I *D sky130_fd_sc_hd__o21ai_2
*I *419:A1 I *D sky130_fd_sc_hd__a21oi_2
*I *388:Y O *D sky130_fd_sc_hd__nor2_2
*CAP
1 *432:B1 0.000222576
2 *445:A1 0.000568907
3 *424:B1 0.000165408
4 *419:A1 0.000146405
5 *388:Y 1.19504e-05
6 *99:38 0.000948146
7 *99:23 0.000494943
8 *99:6 0.000331228
9 *99:6 *149:26 4.77769e-05
10 *99:23 *362:B 2.88689e-05
11 *99:23 *149:26 0.000111946
12 *361:A *445:A1 9.07709e-05
13 *365:A *432:B1 0.000140657
14 *383:A1 *99:38 5.65627e-05
15 *424:A1 *99:38 0.000159317
16 *428:B1 *424:B1 0.000148282
17 *432:A3 *432:B1 4.82919e-05
18 *435:A1 *432:B1 0.000132131
19 *435:A2 *432:B1 4.82919e-05
20 *435:B1 *432:B1 3.21718e-05
21 *435:B1 *445:A1 5.83121e-06
22 *440:A1 *445:A1 4.41506e-05
23 *441:B *432:B1 3.42384e-05
24 *441:B *445:A1 2.9401e-05
25 *441:C *445:A1 0.000121817
26 *445:A3 *445:A1 3.92037e-05
27 *445:B1 *445:A1 2.79137e-05
28 *449:C1 *99:38 0
29 *47:10 *445:A1 0.0001249
30 *47:10 *99:38 0
31 *62:43 *99:6 2.69153e-05
32 *62:43 *99:23 6.92161e-05
33 *72:6 *445:A1 4.47209e-05
34 *92:14 *99:23 0.000276754
35 *92:14 *99:38 5.0096e-05
36 *92:23 *99:38 0.000193998
*RES
1 *388:Y *99:6 2.05 
2 *99:6 *419:A1 7.745 
3 *99:6 *99:23 6.56 
4 *99:23 *424:B1 5.79 
5 *99:23 *99:38 6.185 
6 *99:38 *445:A1 8.95 
7 *99:38 *432:B1 6.7 
*END

*D_NET *100 0.00738555
*CONN
*I *420:B I *D sky130_fd_sc_hd__or3_2
*I *390:C1 I *D sky130_fd_sc_hd__a211o_2
*I *396:B I *D sky130_fd_sc_hd__nor2_2
*I *413:B1 I *D sky130_fd_sc_hd__a21oi_2
*I *408:B1 I *D sky130_fd_sc_hd__a21oi_2
*I *389:X O *D sky130_fd_sc_hd__or2_2
*CAP
1 *420:B 0.000423707
2 *390:C1 2.29885e-05
3 *396:B 0.000323327
4 *413:B1 5.9294e-05
5 *408:B1 6.84981e-05
6 *389:X 0
7 *100:46 0.000714463
8 *100:20 0.000359592
9 *100:16 0.000933301
10 *100:4 0.00075706
11 *396:B *398:A 8.73389e-06
12 *396:B *399:B 0.000118081
13 *396:B *481:A 5.05521e-05
14 *396:B *103:16 0
15 *408:B1 *409:B1 4.66108e-05
16 *408:B1 *412:A 1.12578e-05
17 *413:B1 *415:A1 0.000163199
18 *420:B *103:64 7.03276e-05
19 *100:16 *376:A2 0.000500041
20 *100:16 *389:B 0.000157378
21 *100:16 *447:A 4.12775e-05
22 *100:16 *151:63 0.000119251
23 *100:20 *415:A1 0.000237984
24 *100:20 *151:52 4.31047e-05
25 *100:46 *404:A2 0
26 *100:46 *404:B2 5.80021e-05
27 *100:46 *406:A3 0.000132827
28 *100:46 *102:10 8.12227e-05
29 *100:46 *103:16 8.14857e-05
30 *100:46 *124:49 0.000163865
31 *100:46 *151:52 9.17382e-07
32 *100:46 *151:100 0
33 *376:B1 *100:16 1.84465e-05
34 *376:B1 *100:20 0.000103473
35 *376:B1 *100:46 5.51172e-05
36 *390:A1 *396:B 0.000309729
37 *390:B1 *396:B 0.000167886
38 *396:A *396:B 1.91597e-05
39 *406:B1 *100:16 8.35118e-05
40 *407:B1 *396:B 0
41 *407:B1 *100:46 0
42 *408:A1 *408:B1 0.000149307
43 *408:A1 *413:B1 9.53428e-06
44 *415:B1 *420:B 0.000114518
45 *420:C *420:B 3.45679e-05
46 *448:D1 *100:16 0.000103212
47 *63:12 *420:B 9.12857e-06
48 *63:50 *420:B 7.27704e-06
49 *87:12 *100:20 0.000302361
50 *87:21 *408:B1 0.000117409
51 *87:21 *413:B1 3.25635e-05
*RES
1 *389:X *100:4 1.6 
2 *100:4 *100:16 10.7525 
3 *100:16 *100:20 8.3525 
4 *100:20 *408:B1 3.895 
5 *100:20 *413:B1 3.445 
6 *100:16 *100:46 9.9875 
7 *100:46 *396:B 12.77 
8 *100:46 *390:C1 1.96 
9 *100:4 *420:B 11.225 
*END

*D_NET *101 0.00148186
*CONN
*I *398:D_N I *D sky130_fd_sc_hd__or4b_4
*I *390:X O *D sky130_fd_sc_hd__a211o_2
*CAP
1 *398:D_N 0.000233649
2 *390:X 0.000233649
3 *398:D_N *390:A2 0.000413328
4 *398:D_N *397:C 0.000124895
5 *398:D_N *398:B 4.99619e-05
6 *398:D_N *399:B 0.000284976
7 *398:D_N *481:A 4.82919e-05
8 *398:D_N *109:12 7.07722e-05
9 *390:A1 *398:D_N 2.23407e-05
10 *459:A *398:D_N 0
*RES
1 *390:X *398:D_N 14.25 
*END

*D_NET *102 0.000894771
*CONN
*I *392:B1 I *D sky130_fd_sc_hd__a21o_2
*I *404:B1 I *D sky130_fd_sc_hd__o22a_2
*I *391:X O *D sky130_fd_sc_hd__and3b_2
*CAP
1 *392:B1 7.82051e-05
2 *404:B1 3.20182e-05
3 *391:X 6.68971e-05
4 *102:10 0.00017712
5 *392:B1 *402:C 6.52411e-05
6 *392:B1 *103:16 8.35157e-05
7 *392:B1 *131:10 3.45492e-05
8 *404:B1 *402:C 6.81928e-05
9 *404:B1 *407:A1 8.46818e-05
10 *404:B1 *131:10 2.0187e-05
11 *102:10 *393:A1 6.19385e-05
12 *102:10 *103:16 2.98587e-05
13 *102:10 *151:100 5.31158e-06
14 *392:A2 *392:B1 5.83121e-06
15 *100:46 *102:10 8.12227e-05
*RES
1 *391:X *102:10 7.49 
2 *102:10 *404:B1 2.74 
3 *102:10 *392:B1 3.43 
*END

*D_NET *103 0.0142677
*CONN
*I *433:B2 I *D sky130_fd_sc_hd__a2bb2o_2
*I *427:B1 I *D sky130_fd_sc_hd__a2bb2o_2
*I *419:B1 I *D sky130_fd_sc_hd__a21oi_2
*I *416:B1 I *D sky130_fd_sc_hd__a2bb2o_2
*I *411:B1 I *D sky130_fd_sc_hd__a2bb2o_2
*I *444:A1 I *D sky130_fd_sc_hd__a211o_2
*I *395:B1 I *D sky130_fd_sc_hd__a2bb2o_2
*I *392:X O *D sky130_fd_sc_hd__a21o_2
*CAP
1 *433:B2 2.25824e-05
2 *427:B1 6.05382e-05
3 *419:B1 2.0132e-05
4 *416:B1 3.12261e-05
5 *411:B1 0.000633367
6 *444:A1 8.47581e-06
7 *395:B1 6.94548e-05
8 *392:X 0.000417968
9 *103:64 0.00124951
10 *103:56 0.00135863
11 *103:50 0.00110181
12 *103:48 0.0011859
13 *103:29 0.00121545
14 *103:16 0.000818772
15 *395:B1 *395:A2_N 7.43607e-05
16 *411:B1 *350:A 6.59269e-05
17 *411:B1 *412:B 0.000268739
18 *411:B1 *416:A2_N 0.000202423
19 *411:B1 *417:A3 0.000202182
20 *411:B1 *417:B2 3.80322e-05
21 *411:B1 *146:25 4.16515e-06
22 *416:B1 *350:A 2.49909e-05
23 *433:B2 *433:A2_N 4.54719e-05
24 *103:16 *393:A1 0.000256575
25 *103:16 *449:B1 0.00013521
26 *103:16 *485:A 0.000185405
27 *103:16 *131:10 8.46818e-05
28 *103:29 *395:A2_N 0.000193073
29 *103:48 *433:A1_N 2.34526e-05
30 *103:48 *433:A2_N 3.03684e-05
31 *103:48 *434:A3 1.33285e-05
32 *103:48 *159:23 1.6418e-05
33 *103:50 *433:A2_N 0.000139933
34 *103:50 *105:114 0.000502533
35 *103:56 *366:B 0.000215177
36 *103:56 *422:A1 1.74678e-05
37 *103:56 *422:A2 1.56428e-05
38 *103:56 *477:A 6.81928e-05
39 *103:56 *105:114 8.53113e-06
40 *103:56 *141:8 1.29317e-05
41 *103:56 *157:6 9.63925e-06
42 *103:64 *389:B 1.32102e-05
43 result[5] *103:50 3.31282e-05
44 result[5] *103:56 9.9123e-05
45 *355:B *103:29 7.08493e-05
46 *358:B *103:48 2.16833e-05
47 *365:B *103:50 0
48 *390:B1 *103:16 0.000308758
49 *392:B1 *103:16 8.35157e-05
50 *396:B *103:16 0
51 *411:B2 *411:B1 3.26889e-05
52 *415:B1 *411:B1 2.79929e-05
53 *415:B1 *103:64 0.000106492
54 *417:B1 *411:B1 1.438e-05
55 *417:B1 *416:B1 0.000120655
56 *418:A1 *411:B1 2.24423e-05
57 *420:B *103:64 7.03276e-05
58 *422:B1 *103:56 0.000165072
59 *422:B1 *103:64 1.19028e-05
60 *427:B2 *103:50 9.5433e-05
61 *433:B1 *103:48 8.73389e-06
62 *434:B1 *103:48 9.52621e-05
63 *434:C1 *103:48 3.45588e-05
64 *435:B1 *103:48 0.000123225
65 *442:B1 *103:16 0.000128114
66 *444:B1 *444:A1 5.4155e-06
67 *444:B1 *103:29 0.000395098
68 *444:B1 *103:48 4.66826e-05
69 *466:A *103:56 0.000213799
70 *467:A *103:50 0
71 *59:12 *103:29 0.000108393
72 *59:12 *103:48 0.0001855
73 *61:10 *411:B1 4.99619e-05
74 *63:8 *103:64 4.77769e-05
75 *63:12 *103:64 0.000134887
76 *65:8 *103:29 4.60123e-05
77 *73:14 *103:56 0.000169508
78 *96:10 *103:16 1.70935e-05
79 *100:46 *103:16 8.14857e-05
80 *102:10 *103:16 2.98587e-05
*RES
1 *392:X *103:16 18.02 
2 *103:16 *395:B1 2.74 
3 *103:16 *103:29 8.07 
4 *103:29 *444:A1 1.96 
5 *103:29 *103:48 14.765 
6 *103:48 *103:50 7.5 
7 *103:50 *103:56 17.435 
8 *103:56 *103:64 10.805 
9 *103:64 *411:B1 14.49 
10 *103:64 *416:B1 4.74 
11 *103:56 *419:B1 1.96 
12 *103:50 *427:B1 4.395 
13 *103:48 *433:B2 4.215 
*END

*D_NET *104 0.00185299
*CONN
*I *398:A I *D sky130_fd_sc_hd__or4b_4
*I *393:X O *D sky130_fd_sc_hd__a31o_2
*CAP
1 *398:A 0.000665136
2 *393:X 0.000665136
3 *398:A *393:A1 8.23457e-05
4 *398:A *399:B 1.19928e-05
5 *398:A *402:A 7.61941e-05
6 *398:A *161:16 0.000140905
7 *396:A *398:A 6.33103e-05
8 *396:B *398:A 8.73389e-06
9 *459:A *398:A 0.000139238
*RES
1 *393:X *398:A 15.84 
*END

*D_NET *105 0.0167785
*CONN
*I *433:A2_N I *D sky130_fd_sc_hd__a2bb2o_2
*I *427:A2_N I *D sky130_fd_sc_hd__a2bb2o_2
*I *422:A2 I *D sky130_fd_sc_hd__o221a_2
*I *443:B I *D sky130_fd_sc_hd__nor2_2
*I *395:A2_N I *D sky130_fd_sc_hd__a2bb2o_2
*I *416:A2_N I *D sky130_fd_sc_hd__a2bb2o_2
*I *411:A2_N I *D sky130_fd_sc_hd__a2bb2o_2
*I *405:B I *D sky130_fd_sc_hd__nor2_2
*I *394:Y O *D sky130_fd_sc_hd__nand3b_2
*CAP
1 *433:A2_N 9.20369e-05
2 *427:A2_N 0
3 *422:A2 0.000484742
4 *443:B 0
5 *395:A2_N 0.000774604
6 *416:A2_N 0.000290638
7 *411:A2_N 1.37654e-05
8 *405:B 0.000556771
9 *394:Y 0.00123893
10 *105:114 0.000667105
11 *105:108 0.000711034
12 *105:99 0.000445123
13 *105:74 0.001554
14 *105:43 0.000710448
15 *105:12 0.00143083
16 *395:A2_N *384:B 0.000236502
17 *405:B *353:A 0.000192513
18 *405:B *403:B1 4.82172e-06
19 *405:B *405:A 8.43944e-05
20 *405:B *124:23 7.9642e-06
21 *405:B *134:27 1.87841e-05
22 *411:A2_N *135:27 2.75145e-05
23 *416:A2_N *373:B 7.46855e-05
24 *416:A2_N *412:B 8.34281e-06
25 *416:A2_N *417:A3 2.20014e-05
26 *416:A2_N *417:B2 0.000151115
27 *416:A2_N *135:27 2.49909e-05
28 *416:A2_N *146:25 9.99636e-06
29 *422:A2 *421:A1 6.73186e-05
30 *422:A2 *422:A1 1.77945e-05
31 *422:A2 *427:A1_N 1.60083e-05
32 *422:A2 *448:B1 3.84918e-06
33 *422:A2 *141:8 4.28112e-06
34 *422:A2 *157:6 4.66108e-05
35 *422:A2 *157:10 2.85623e-05
36 *422:A2 *158:21 0.000305895
37 *422:A2 *158:34 6.28843e-05
38 *105:12 *151:100 1.88602e-05
39 *105:43 *353:A 3.32517e-05
40 *105:43 *375:A 9.05592e-05
41 *105:43 *376:A2 0.000153979
42 *105:43 *404:A1 3.42161e-05
43 *105:43 *406:A3 7.27704e-06
44 *105:43 *407:A3 6.2346e-05
45 *105:43 *412:C 0
46 *105:43 *415:A1 3.2511e-05
47 *105:43 *124:36 1.7635e-05
48 *105:43 *124:49 8.34904e-06
49 *105:43 *135:23 5.23362e-05
50 *105:43 *137:12 2.10783e-05
51 *105:43 *151:52 3.43898e-05
52 *105:43 *162:10 5.21974e-05
53 *105:74 *134:68 0.000112129
54 *105:108 *357:A_N 4.82919e-05
55 *355:B *395:A2_N 3.63206e-05
56 *357:B *105:108 8.57024e-05
57 *358:A_N *395:A2_N 0
58 *359:B1_N *105:108 0.000313857
59 *360:A_N *105:108 3.83041e-05
60 *373:A_N *105:43 0
61 *377:B1 *416:A2_N 0.000232111
62 *383:B1 *105:74 0
63 *392:A2 *105:12 9.5799e-06
64 *395:B1 *395:A2_N 7.43607e-05
65 *411:B1 *416:A2_N 0.000202423
66 *411:B2 *411:A2_N 2.75229e-05
67 *411:B2 *416:A2_N 3.96653e-05
68 *417:B1 *416:A2_N 0.000196847
69 *422:B1 *422:A2 1.22325e-05
70 *428:A1 *422:A2 8.23457e-05
71 *428:A2 *422:A2 0.000306619
72 *428:A3 *422:A2 1.23401e-05
73 *431:B1 *422:A2 8.09157e-06
74 *433:B1 *433:A2_N 4.66108e-05
75 *433:B2 *433:A2_N 4.54719e-05
76 *437:B *105:74 0
77 *439:A *395:A2_N 0.000150299
78 *439:A *105:74 7.27323e-05
79 *444:C1 *395:A2_N 9.5433e-05
80 *448:D1 *105:74 0.000145847
81 *462:A *405:B 5.00799e-05
82 *462:A *105:43 3.89775e-05
83 *42:14 *433:A2_N 0.000198286
84 *42:14 *105:114 0.000176247
85 *47:10 *105:74 0
86 *50:8 *105:74 2.37321e-05
87 *59:12 *395:A2_N 0.000266164
88 *63:50 *105:74 0.000132827
89 *63:78 *105:74 0.000424489
90 *65:8 *395:A2_N 4.60123e-05
91 *66:8 *105:108 0.000276441
92 *71:10 *105:108 0.000326124
93 *73:14 *422:A2 9.79045e-05
94 *73:14 *105:114 0.000314445
95 *97:8 *395:A2_N 0.000115751
96 *103:29 *395:A2_N 0.000193073
97 *103:48 *433:A2_N 3.03684e-05
98 *103:50 *433:A2_N 0.000139933
99 *103:50 *105:114 0.000502533
100 *103:56 *422:A2 1.56428e-05
101 *103:56 *105:114 8.53113e-06
*RES
1 *394:Y *105:12 4.95317 
2 *105:12 *405:B 7.6849 
3 *105:12 *105:43 11.4925 
4 *105:43 *411:A2_N 2.05 
5 *105:43 *416:A2_N 9.775 
6 *394:Y *105:74 18.5475 
7 *105:74 *395:A2_N 17.4525 
8 *105:74 *105:99 2.2325 
9 *105:99 *443:B 1.6 
10 *105:99 *105:108 12.455 
11 *105:108 *105:114 8.42 
12 *105:114 *422:A2 20.775 
13 *105:114 *427:A2_N 1.6 
14 *105:108 *433:A2_N 6.795 
*END

*D_NET *106 0.000527354
*CONN
*I *398:C I *D sky130_fd_sc_hd__or4b_4
*I *395:X O *D sky130_fd_sc_hd__a2bb2o_2
*CAP
1 *398:C 0.000145061
2 *395:X 0.000145061
3 *398:C *384:B 0.000163204
4 *396:A *398:C 0
5 *459:A *398:C 7.4027e-05
*RES
1 *395:X *398:C 9.555 
*END

*D_NET *107 0.0022842
*CONN
*I *397:C I *D sky130_fd_sc_hd__and3_4
*I *402:A I *D sky130_fd_sc_hd__and3_4
*I *396:Y O *D sky130_fd_sc_hd__nor2_2
*CAP
1 *397:C 0.000231859
2 *402:A 0.000250417
3 *396:Y 0
4 *107:4 0.000482276
5 *397:C *390:A2 8.23457e-05
6 *397:C *398:B 2.0514e-05
7 *397:C *109:12 0.000159358
8 *402:A *402:B 9.24049e-05
9 *402:A *151:12 9.15772e-05
10 *402:A *161:16 0.000141606
11 *390:A1 *397:C 1.56428e-05
12 *398:A *402:A 7.61941e-05
13 *398:D_N *397:C 0.000124895
14 *459:A *397:C 0
15 *459:A *402:A 0.000515106
*RES
1 *396:Y *107:4 1.6 
2 *107:4 *402:A 13.4 
3 *107:4 *397:C 10.37 
*END

*D_NET *108 0.000384619
*CONN
*I *398:B I *D sky130_fd_sc_hd__or4b_4
*I *397:X O *D sky130_fd_sc_hd__and3_4
*CAP
1 *398:B 0.000126796
2 *397:X 0.000126796
3 *398:B *109:12 6.05513e-05
4 *397:C *398:B 2.0514e-05
5 *398:D_N *398:B 4.99619e-05
*RES
1 *397:X *398:B 5.735 
*END

*D_NET *109 0.0031431
*CONN
*I *401:A1 I *D sky130_fd_sc_hd__a21o_2
*I *485:A I *D sky130_fd_sc_hd__buf_6
*I *400:B1 I *D sky130_fd_sc_hd__o21a_4
*I *398:X O *D sky130_fd_sc_hd__or4b_4
*CAP
1 *401:A1 9.03711e-05
2 *485:A 4.4988e-05
3 *400:B1 0
4 *398:X 0.000462012
5 *109:19 0.000253087
6 *109:12 0.000579741
7 *401:A1 *161:42 5.66821e-05
8 *485:A *393:A1 0.000185405
9 *109:12 *399:B 0.00015997
10 *109:19 *449:B1 4.66742e-05
11 *109:19 *480:A 0.000125845
12 *109:19 *161:42 2.67275e-05
13 *397:C *109:12 0.000159358
14 *398:B *109:12 6.05513e-05
15 *398:D_N *109:12 7.07722e-05
16 *401:A2 *401:A1 3.13354e-05
17 *459:A *109:12 0
18 *63:84 *401:A1 0.000230803
19 *63:84 *109:19 0.000373375
20 *103:16 *485:A 0.000185405
*RES
1 *398:X *109:12 12.575 
2 *109:12 *400:B1 1.6 
3 *109:12 *109:19 3.555 
4 *109:19 *485:A 7.745 
5 *109:19 *401:A1 4.135 
*END

*D_NET *110 0.000634426
*CONN
*I *402:B I *D sky130_fd_sc_hd__and3_4
*I *399:Y O *D sky130_fd_sc_hd__nand2_2
*CAP
1 *402:B 0.000137719
2 *399:Y 0.000137719
3 *402:B *481:A 6.83659e-05
4 *402:B *151:12 0.00018878
5 *402:A *402:B 9.24049e-05
6 *459:A *402:B 9.43677e-06
*RES
1 *399:Y *402:B 10.83 
*END

*D_NET *111 0.00229181
*CONN
*I *402:C I *D sky130_fd_sc_hd__and3_4
*I *401:X O *D sky130_fd_sc_hd__a21o_2
*CAP
1 *402:C 0.000575674
2 *401:X 0.000575674
3 *402:C *393:A1 0.000289011
4 *402:C *404:A1 5.09431e-05
5 *402:C *407:A1 0.000375705
6 *402:C *131:10 0.000291372
7 *392:B1 *402:C 6.52411e-05
8 *404:B1 *402:C 6.81928e-05
*RES
1 *401:X *402:C 19.86 
*END

*D_NET *112 0.00142723
*CONN
*I *404:B2 I *D sky130_fd_sc_hd__o22a_2
*I *403:Y O *D sky130_fd_sc_hd__a221oi_2
*CAP
1 *404:B2 0.000418676
2 *403:Y 0.000418676
3 *404:B2 *404:A2 5.80021e-05
4 *404:B2 *405:A 1.91597e-05
5 *404:B2 *132:51 0.000159722
6 *404:B2 *134:27 0.000269962
7 *404:B2 *134:31 2.50267e-05
8 *100:46 *404:B2 5.80021e-05
*RES
1 *403:Y *404:B2 13.515 
*END

*D_NET *113 0.00222852
*CONN
*I *407:A1 I *D sky130_fd_sc_hd__o32a_2
*I *404:X O *D sky130_fd_sc_hd__o22a_2
*CAP
1 *407:A1 0.000442728
2 *404:X 0.000442728
3 *407:A1 *404:A1 8.64599e-05
4 *407:A1 *131:10 0.000268727
5 *407:A1 *134:27 0.000216854
6 *407:A1 *151:12 0.000136052
7 *407:A1 *151:14 0.000174586
8 *402:C *407:A1 0.000375705
9 *404:B1 *407:A1 8.46818e-05
*RES
1 *404:X *407:A1 17.31 
*END

*D_NET *114 0.000612037
*CONN
*I *407:A2 I *D sky130_fd_sc_hd__o32a_2
*I *405:Y O *D sky130_fd_sc_hd__nor2_2
*CAP
1 *407:A2 0.000170032
2 *405:Y 0.000170032
3 *407:A2 *353:A 1.82111e-05
4 *407:A2 *137:12 0.000119247
5 *460:A *407:A2 0.000134515
*RES
1 *405:Y *407:A2 11.01 
*END

*D_NET *115 0.00103043
*CONN
*I *407:A3 I *D sky130_fd_sc_hd__o32a_2
*I *406:X O *D sky130_fd_sc_hd__a31o_2
*CAP
1 *407:A3 0.000156755
2 *406:X 0.000156755
3 *407:A3 *132:30 4.66108e-05
4 *407:A3 *134:8 2.15454e-05
5 *407:A3 *137:12 0.000417123
6 *407:B1 *407:A3 4.77769e-05
7 *460:A *407:A3 8.25446e-05
8 *462:A *407:A3 3.89775e-05
9 *105:43 *407:A3 6.2346e-05
*RES
1 *406:X *407:A3 11.955 
*END

*D_NET *116 0.00037675
*CONN
*I *409:B1 I *D sky130_fd_sc_hd__o21a_2
*I *408:Y O *D sky130_fd_sc_hd__a21oi_2
*CAP
1 *409:B1 4.90367e-05
2 *408:Y 4.90367e-05
3 *409:B1 *412:A 4.70919e-05
4 *409:B1 *135:8 4.60584e-05
5 *408:A1 *409:B1 1.91597e-05
6 *408:B1 *409:B1 4.66108e-05
7 *409:A2 *409:B1 8.40213e-05
8 *87:21 *409:B1 3.57349e-05
*RES
1 *408:Y *409:B1 5.03 
*END

*D_NET *117 0.0028122
*CONN
*I *412:A I *D sky130_fd_sc_hd__or3_2
*I *409:X O *D sky130_fd_sc_hd__o21a_2
*CAP
1 *412:A 0.000911401
2 *409:X 0.000911401
3 *412:A *367:B 0
4 *412:A *376:A2 0
5 *412:A *412:B 0
6 *412:A *415:A1 0.000498847
7 *412:A *135:8 8.22234e-06
8 *412:A *146:10 4.43871e-06
9 *412:A *146:21 0.000103722
10 *408:A1 *412:A 0.000193801
11 *408:B1 *412:A 1.12578e-05
12 *409:B1 *412:A 4.70919e-05
13 *417:B1 *412:A 2.61042e-05
14 *88:14 *412:A 4.86642e-05
15 *88:29 *412:A 4.72463e-05
*RES
1 *409:X *412:A 20.28 
*END

*D_NET *118 0.00276098
*CONN
*I *412:B I *D sky130_fd_sc_hd__or3_2
*I *410:X O *D sky130_fd_sc_hd__o211a_2
*CAP
1 *412:B 0.000908821
2 *410:X 0.000908821
3 *412:B *373:B 0.000130106
4 *412:B *410:B1 0.000150322
5 *412:B *410:C1 0
6 *412:B *417:A1 5.16418e-05
7 *412:B *447:B 8.33066e-06
8 *412:B *447:C 2.43782e-05
9 *412:B *475:A 8.89901e-05
10 *412:B *135:27 5.3895e-06
11 *412:B *138:6 8.64421e-05
12 *411:B1 *412:B 0.000268739
13 *411:B2 *412:B 0.000120655
14 *412:A *412:B 0
15 *416:A2_N *412:B 8.34281e-06
*RES
1 *410:X *412:B 20.13 
*END

*D_NET *119 0.00179746
*CONN
*I *412:C I *D sky130_fd_sc_hd__or3_2
*I *411:X O *D sky130_fd_sc_hd__a2bb2o_2
*CAP
1 *412:C 0.000496271
2 *411:X 0.000496271
3 *412:C *376:A1 1.06995e-05
4 *412:C *474:A 0.000318918
5 *412:C *138:6 4.57056e-05
6 *412:C *162:6 1.4399e-05
7 *373:A_N *412:C 7.4027e-05
8 *376:B1 *412:C 2.63406e-05
9 *377:B1 *412:C 0.000230803
10 *87:12 *412:C 8.40213e-05
11 *105:43 *412:C 0
*RES
1 *411:X *412:C 15.9 
*END

*D_NET *120 0.00131423
*CONN
*I *414:B1 I *D sky130_fd_sc_hd__o21a_2
*I *413:Y O *D sky130_fd_sc_hd__a21oi_2
*CAP
1 *414:B1 0.000129361
2 *413:Y 0.000129361
3 *414:B1 *415:A1 0.000125034
4 *414:B1 *415:A3 0.000306448
5 *414:B1 *417:A1 3.69909e-05
6 *414:B1 *417:A2 0.000159697
7 *413:A2 *414:B1 8.52845e-05
8 *88:29 *414:B1 0.000342056
*RES
1 *413:Y *414:B1 8.825 
*END

*D_NET *121 0.00145933
*CONN
*I *417:A1 I *D sky130_fd_sc_hd__o32a_2
*I *414:X O *D sky130_fd_sc_hd__o21a_2
*CAP
1 *417:A1 0.00039709
2 *414:X 0.00039709
3 *417:A1 *417:A2 0.000272333
4 *417:A1 *475:A 3.42142e-05
5 *412:B *417:A1 5.16418e-05
6 *414:B1 *417:A1 3.69909e-05
7 *88:29 *417:A1 0.000269966
*RES
1 *414:X *417:A1 13.17 
*END

*D_NET *122 0.000683012
*CONN
*I *417:A2 I *D sky130_fd_sc_hd__o32a_2
*I *415:X O *D sky130_fd_sc_hd__a31o_2
*CAP
1 *417:A2 0.000120408
2 *415:X 0.000120408
3 *417:A2 *475:A 1.01661e-05
4 *414:B1 *417:A2 0.000159697
5 *417:A1 *417:A2 0.000272333
*RES
1 *415:X *417:A2 10.32 
*END

*D_NET *123 0.0004903
*CONN
*I *417:A3 I *D sky130_fd_sc_hd__o32a_2
*I *416:X O *D sky130_fd_sc_hd__a2bb2o_2
*CAP
1 *417:A3 5.29033e-05
2 *416:X 5.29033e-05
3 *417:A3 *417:B2 0.00016031
4 *411:B1 *417:A3 0.000202182
5 *416:A2_N *417:A3 2.20014e-05
*RES
1 *416:X *417:A3 5.39 
*END

*D_NET *124 0.00348237
*CONN
*I *405:A I *D sky130_fd_sc_hd__nor2_2
*I *375:B I *D sky130_fd_sc_hd__nand2_2
*I *406:A3 I *D sky130_fd_sc_hd__a31o_2
*I *404:A2 I *D sky130_fd_sc_hd__o22a_2
*I *403:B2 I *D sky130_fd_sc_hd__a221oi_2
*I *407:B2 I *D sky130_fd_sc_hd__o32a_2
*I *452:X O *D sky130_fd_sc_hd__clkdlybuf4s25_1
*CAP
1 *405:A 6.92642e-05
2 *375:B 0
3 *406:A3 8.98021e-05
4 *404:A2 0.000157888
5 *403:B2 9.00004e-05
6 *407:B2 0
7 *452:X 0.00012139
8 *124:49 0.000262693
9 *124:36 0.00040767
10 *124:23 0.000186568
11 *124:10 0.00021033
12 *403:B2 *134:31 3.21081e-06
13 *404:A2 *404:A1 0
14 *405:A *134:27 4.77807e-05
15 *406:A3 *375:A 4.4022e-05
16 *406:A3 *447:A 7.01132e-05
17 *406:A3 *151:52 2.85623e-05
18 *406:A3 *151:63 4.66108e-05
19 *406:A3 *162:27 4.77807e-05
20 *124:10 *403:B1 0.00010903
21 *124:10 *410:A1 3.26399e-05
22 *124:10 *134:27 2.56492e-05
23 *124:10 *151:33 4.40693e-06
24 *124:23 *353:A 8.35157e-05
25 *124:23 *403:B1 0.000152433
26 *124:23 *134:27 0.00010154
27 *124:36 *353:A 0.000255515
28 *124:36 *134:27 3.82454e-05
29 *124:36 *134:31 0.000121659
30 *124:36 *134:40 3.57349e-05
31 *124:49 *353:A 9.10613e-05
32 result[0] *124:10 4.77807e-05
33 *404:B2 *404:A2 5.80021e-05
34 *404:B2 *405:A 1.91597e-05
35 *405:B *405:A 8.43944e-05
36 *405:B *124:23 7.9642e-06
37 *407:B1 *404:A2 0
38 *100:46 *404:A2 0
39 *100:46 *406:A3 0.000132827
40 *100:46 *124:49 0.000163865
41 *105:43 *406:A3 7.27704e-06
42 *105:43 *124:36 1.7635e-05
43 *105:43 *124:49 8.34904e-06
*RES
1 *452:X *124:10 5.775 
2 *124:10 *407:B2 3.6 
3 *124:10 *124:23 4.685 
4 *124:23 *403:B2 1.96 
5 *124:23 *124:36 4.7525 
6 *124:36 *404:A2 6.1275 
7 *124:36 *124:49 3.1575 
8 *124:49 *406:A3 6.375 
9 *124:49 *375:B 3.6 
10 *403:B2 *405:A 4.685 
*END

*D_NET *125 0.00113051
*CONN
*I *410:A2 I *D sky130_fd_sc_hd__o211a_2
*I *372:A I *D sky130_fd_sc_hd__xor2_2
*I *453:X O *D sky130_fd_sc_hd__clkdlybuf4s25_1
*CAP
1 *410:A2 0.000238842
2 *372:A 0.000193553
3 *453:X 0.00010704
4 *125:8 0.000539436
5 *372:A *372:B 0
6 *410:A2 *372:B 0
7 *410:A2 *410:C1 5.16418e-05
*RES
1 *453:X *125:8 4.74 
2 *125:8 *372:A 6.705 
3 *125:8 *410:A2 7.275 
*END

*D_NET *126 0.00198109
*CONN
*I *415:A3 I *D sky130_fd_sc_hd__a31o_2
*I *367:A I *D sky130_fd_sc_hd__xor2_2
*I *454:X O *D sky130_fd_sc_hd__clkdlybuf4s25_1
*CAP
1 *415:A3 0.000192954
2 *367:A 0.000235486
3 *454:X 0.000127173
4 *126:10 0.000555613
5 *415:A3 *367:B 4.66372e-05
6 *415:A3 *415:A1 8.49205e-05
7 *368:A *415:A3 1.71013e-05
8 *368:A *126:10 9.34533e-05
9 *381:A3 *415:A3 1.08758e-05
10 *414:B1 *415:A3 0.000306448
11 *415:B1 *415:A3 0.00017375
12 *61:10 *415:A3 0.000100308
13 *88:29 *415:A3 3.63661e-05
*RES
1 *454:X *126:10 5.52 
2 *126:10 *367:A 6.825 
3 *126:10 *415:A3 9.555 
*END

*D_NET *127 0.00188493
*CONN
*I *366:A I *D sky130_fd_sc_hd__xor2_2
*I *421:A3 I *D sky130_fd_sc_hd__a31oi_2
*I *455:X O *D sky130_fd_sc_hd__clkdlybuf4s25_1
*CAP
1 *366:A 0.000431808
2 *421:A3 2.08101e-05
3 *455:X 0.0003589
4 *127:6 0.000811518
5 *366:A *366:B 0
6 *127:6 *421:A1 4.82863e-05
7 *127:6 *421:A2 5.88334e-05
8 result[3] *366:A 0
9 *421:B1 *127:6 0.000141323
10 *422:C1 *127:6 1.34503e-05
*RES
1 *455:X *127:6 7.225 
2 *127:6 *421:A3 1.96 
3 *127:6 *366:A 12.365 
*END

*D_NET *128 0.00133784
*CONN
*I *362:A I *D sky130_fd_sc_hd__xor2_2
*I *426:A3 I *D sky130_fd_sc_hd__a31o_2
*I *456:X O *D sky130_fd_sc_hd__clkdlybuf4s25_1
*CAP
1 *362:A 0.000215912
2 *426:A3 6.14127e-05
3 *456:X 8.6317e-05
4 *128:6 0.000363642
5 *362:A *362:B 1.62441e-05
6 *362:A *448:C1 0.000235578
7 *426:A3 *149:18 0.000113222
8 *426:A3 *158:21 0.00013475
9 *128:6 *448:C1 9.86257e-05
10 *73:14 *362:A 1.21396e-05
*RES
1 *456:X *128:6 2.74 
2 *128:6 *426:A3 7.235 
3 *128:6 *362:A 5.185 
*END

*D_NET *129 0.00146
*CONN
*I *356:A I *D sky130_fd_sc_hd__xor2_2
*I *434:A3 I *D sky130_fd_sc_hd__a311o_2
*I *457:X O *D sky130_fd_sc_hd__clkdlybuf4s25_1
*CAP
1 *356:A 0
2 *434:A3 0.000180327
3 *457:X 0.000415825
4 *129:10 0.000596152
5 *434:A3 *149:10 0
6 *434:A3 *159:31 0.000117519
7 *358:A_N *434:A3 0
8 *358:B *434:A3 1.91597e-05
9 *430:A *434:A3 0
10 *434:B1 *434:A3 4.82919e-05
11 *435:B1 *434:A3 4.82863e-05
12 *457:A *129:10 2.11084e-05
13 *67:10 *434:A3 0
14 *103:48 *434:A3 1.33285e-05
*RES
1 *457:X *129:10 8.535 
2 *129:10 *434:A3 6.885 
3 *129:10 *356:A 3.6 
*END

*D_NET *130 0.000842118
*CONN
*I *442:A3 I *D sky130_fd_sc_hd__a31o_2
*I *354:A I *D sky130_fd_sc_hd__xor2_2
*I *458:X O *D sky130_fd_sc_hd__clkdlybuf4s25_1
*CAP
1 *442:A3 3.29257e-05
2 *354:A 0.000129612
3 *458:X 0.00011025
4 *130:8 0.000272788
5 *354:A *150:24 0
6 *354:A *150:33 0
7 *442:A3 *385:A 7.08554e-05
8 *442:A3 *442:A1 8.64421e-05
9 *442:B1 *354:A 0.000139245
*RES
1 *458:X *130:8 5.235 
2 *130:8 *354:A 6.045 
3 *130:8 *442:A3 4.74 
*END

*D_NET *131 0.00479416
*CONN
*I *384:B I *D sky130_fd_sc_hd__xnor2_2
*I *393:A3 I *D sky130_fd_sc_hd__a31o_2
*I *459:X O *D sky130_fd_sc_hd__clkdlybuf4s25_1
*CAP
1 *384:B 0.000656861
2 *393:A3 1.36534e-05
3 *459:X 0.000584009
4 *131:10 0.00125452
5 *384:B *384:A 2.75145e-05
6 *384:B *393:A2 4.9968e-05
7 *384:B *395:A1_N 0.00019055
8 *384:B *479:A 0
9 *393:A3 *393:A1 4.66108e-05
10 *131:10 *393:A1 0.000149531
11 *131:10 *393:A2 0.000203762
12 *359:A2 *384:B 0
13 *392:A2 *131:10 8.33066e-06
14 *392:B1 *131:10 3.45492e-05
15 *395:A2_N *384:B 0.000236502
16 *398:C *384:B 0.000163204
17 *402:C *131:10 0.000291372
18 *404:B1 *131:10 2.0187e-05
19 *407:A1 *131:10 0.000268727
20 *437:A *384:B 0
21 *442:B1 *384:B 0.000300219
22 *442:B1 *393:A3 4.66108e-05
23 *442:B1 *131:10 3.09233e-05
24 *449:A2 *131:10 0
25 *97:8 *384:B 0.000131871
26 *103:16 *131:10 8.46818e-05
*RES
1 *459:X *131:10 14.835 
2 *131:10 *393:A3 4.05 
3 *131:10 *384:B 16.26 
*END

*D_NET *132 0.00270797
*CONN
*I *394:B I *D sky130_fd_sc_hd__nand3b_2
*I *391:C I *D sky130_fd_sc_hd__and3b_2
*I *353:C_N I *D sky130_fd_sc_hd__or3b_4
*I *387:B I *D sky130_fd_sc_hd__nor2_2
*I *403:A2 I *D sky130_fd_sc_hd__a221oi_2
*I *460:X O *D sky130_fd_sc_hd__clkbuf_2
*CAP
1 *394:B 0.000182309
2 *391:C 0
3 *353:C_N 2.37663e-05
4 *387:B 0
5 *403:A2 0.000161241
6 *460:X 0.000313382
7 *132:51 0.000264883
8 *132:30 0.000258481
9 *353:C_N *353:A 6.60042e-05
10 *394:B *394:C 5.19006e-06
11 *394:B *134:40 0.000114232
12 *394:B *134:49 4.71087e-05
13 *403:A2 *404:A1 0.000109209
14 *403:A2 *137:12 4.77769e-05
15 *132:30 *353:A 0.000343757
16 *132:30 *375:A 7.48808e-05
17 *132:30 *387:A 4.77807e-05
18 *132:30 *134:8 6.33103e-05
19 *132:51 *391:A_N 9.12671e-06
20 *132:51 *134:27 1.77945e-05
21 *132:51 *134:31 3.21054e-05
22 *132:51 *134:40 9.79556e-05
23 *404:B2 *132:51 0.000159722
24 *406:B1 *353:C_N 7.27003e-05
25 *406:B1 *132:30 3.81397e-05
26 *407:A3 *132:30 4.66108e-05
27 *407:B1 *403:A2 0.000110506
*RES
1 *460:X *403:A2 9.03 
2 *460:X *132:30 7.36 
3 *132:30 *387:B 1.6 
4 *132:30 *353:C_N 2.74 
5 *403:A2 *132:51 3.9625 
6 *132:51 *391:C 1.6 
7 *132:51 *394:B 4.6525 
*END

*D_NET *133 0.00252794
*CONN
*I *450:A I *D sky130_fd_sc_hd__buf_6
*I *451:A I *D sky130_fd_sc_hd__clkdlybuf4s25_1
*I *461:X O *D sky130_fd_sc_hd__buf_6
*CAP
1 *450:A 0
2 *451:A 0.000916158
3 *461:X 0.000180679
4 *133:6 0.00109684
5 *451:A *160:10 5.33874e-05
6 *133:6 *148:10 0.00012657
7 result[6] *451:A 5.06989e-05
8 *458:A *451:A 3.00381e-05
9 *468:A *451:A 7.35729e-05
*RES
1 *461:X *133:6 4.81 
2 *133:6 *451:A 19.25 
3 *133:6 *450:A 1.6 
*END

*D_NET *134 0.00697522
*CONN
*I *403:A1 I *D sky130_fd_sc_hd__a221oi_2
*I *388:A I *D sky130_fd_sc_hd__nor2_2
*I *351:A I *D sky130_fd_sc_hd__and2_2
*I *352:A I *D sky130_fd_sc_hd__nand2_2
*I *389:A I *D sky130_fd_sc_hd__or2_2
*I *353:B I *D sky130_fd_sc_hd__or3b_4
*I *392:A1 I *D sky130_fd_sc_hd__a21o_2
*I *394:C I *D sky130_fd_sc_hd__nand3b_2
*I *391:A_N I *D sky130_fd_sc_hd__and3b_2
*I *410:A1 I *D sky130_fd_sc_hd__o211a_2
*I *462:X O *D sky130_fd_sc_hd__clkbuf_2
*CAP
1 *403:A1 0
2 *388:A 0.000100714
3 *351:A 0
4 *352:A 6.66313e-05
5 *389:A 6.11795e-05
6 *353:B 0
7 *392:A1 8.48432e-05
8 *394:C 1.93555e-05
9 *391:A_N 1.34889e-05
10 *410:A1 0.000246715
11 *462:X 0.000311469
12 *134:83 0.000205812
13 *134:75 0.000316006
14 *134:68 0.000335084
15 *134:49 0.000339318
16 *134:40 0.000190816
17 *134:31 0.000168959
18 *134:27 0.000236459
19 *134:8 0.000753953
20 *352:A *389:B 3.63576e-05
21 *388:A *351:B 7.32625e-05
22 *388:A *149:36 9.09804e-05
23 *389:A *389:B 0.000122197
24 *410:A1 *372:B 0.000153146
25 *410:A1 *410:B1 7.33897e-05
26 *410:A1 *410:C1 0.000163634
27 *410:A1 *151:14 9.61238e-05
28 *134:27 *353:A 7.18107e-06
29 *134:27 *403:B1 1.18413e-05
30 *134:27 *151:14 1.74235e-05
31 *134:40 *351:B 2.69217e-05
32 *134:40 *353:A 4.22944e-05
33 *134:40 *391:B 0.000110483
34 *134:49 *351:B 8.47185e-05
35 *134:68 *351:B 9.77362e-05
36 *134:75 *351:B 8.41384e-05
37 *134:83 *351:B 1.46781e-05
38 *134:83 *147:12 1.31307e-05
39 *134:83 *149:36 9.18556e-05
40 *373:A_N *410:A1 0
41 *392:A2 *392:A1 6.9669e-05
42 *394:B *394:C 5.19006e-06
43 *394:B *134:40 0.000114232
44 *394:B *134:49 4.71087e-05
45 *403:B2 *134:31 3.21081e-06
46 *404:B2 *134:27 0.000269962
47 *404:B2 *134:31 2.50267e-05
48 *405:A *134:27 4.77807e-05
49 *405:B *134:27 1.87841e-05
50 *406:B1 *134:75 6.87746e-05
51 *407:A1 *134:27 0.000216854
52 *407:A3 *134:8 2.15454e-05
53 *415:B1 *134:83 3.72007e-05
54 *448:D1 *134:68 0.000154956
55 *460:A *134:8 0.000231819
56 *62:43 *388:A 5.09431e-05
57 *63:8 *352:A 1.32026e-05
58 *63:50 *134:83 2.14921e-05
59 *64:8 *134:68 7.27704e-06
60 *105:74 *134:68 0.000112129
61 *124:10 *410:A1 3.26399e-05
62 *124:10 *134:27 2.56492e-05
63 *124:23 *134:27 0.00010154
64 *124:36 *134:27 3.82454e-05
65 *124:36 *134:31 0.000121659
66 *124:36 *134:40 3.57349e-05
67 *132:30 *134:8 6.33103e-05
68 *132:51 *391:A_N 9.12671e-06
69 *132:51 *134:27 1.77945e-05
70 *132:51 *134:31 3.21054e-05
71 *132:51 *134:40 9.79556e-05
*RES
1 *462:X *134:8 7.5 
2 *134:8 *410:A1 9.7275 
3 *134:8 *134:27 8.045 
4 *134:27 *134:31 1.5 
5 *134:31 *391:A_N 1.96 
6 *134:31 *134:40 3.555 
7 *134:40 *394:C 1.96 
8 *134:40 *134:49 1.485 
9 *134:49 *392:A1 7.235 
10 *134:49 *134:68 8.41 
11 *134:68 *353:B 1.6 
12 *134:68 *134:75 2.52 
13 *134:75 *134:83 5.995 
14 *134:83 *389:A 2.74 
15 *134:83 *352:A 2.755 
16 *134:75 *351:A 1.6 
17 *134:75 *388:A 4.135 
18 *134:27 *403:A1 1.6 
*END

*D_NET *135 0.00454805
*CONN
*I *373:B I *D sky130_fd_sc_hd__and2b_2
*I *411:A1_N I *D sky130_fd_sc_hd__a2bb2o_2
*I *410:B1 I *D sky130_fd_sc_hd__o211a_2
*I *374:B I *D sky130_fd_sc_hd__xnor2_2
*I *463:X O *D sky130_fd_sc_hd__clkdlybuf4s25_1
*CAP
1 *373:B 0.000369743
2 *411:A1_N 0
3 *410:B1 0.000208685
4 *374:B 0.000144212
5 *463:X 0.000334354
6 *135:27 0.000370417
7 *135:23 0.000603012
8 *135:8 0.000550104
9 *373:B *447:B 2.49909e-05
10 *373:B *447:C 6.69172e-05
11 *373:B *474:A 7.79462e-05
12 *410:B1 *410:C1 0.000102589
13 *135:23 *415:A1 1.1561e-05
14 *373:A_N *373:B 1.37328e-05
15 *373:A_N *135:23 0
16 *377:A2 *374:B 0.000199727
17 *377:B1 *373:B 0.000230435
18 *377:B1 *374:B 0.000220445
19 *377:B1 *135:23 0.000157602
20 *409:A2 *135:8 8.40213e-05
21 *409:B1 *135:8 4.60584e-05
22 *410:A1 *410:B1 7.33897e-05
23 *411:A2_N *135:27 2.75145e-05
24 *411:B2 *374:B 1.07797e-05
25 *411:B2 *135:23 4.31189e-05
26 *411:B2 *135:27 0
27 *412:A *135:8 8.22234e-06
28 *412:B *373:B 0.000130106
29 *412:B *410:B1 0.000150322
30 *412:B *135:27 5.3895e-06
31 *416:A2_N *373:B 7.46855e-05
32 *416:A2_N *135:27 2.49909e-05
33 *85:8 *374:B 8.40269e-05
34 *87:21 *135:8 4.66108e-05
35 *105:43 *135:23 5.23362e-05
*RES
1 *463:X *135:8 7.5 
2 *135:8 *374:B 7.395 
3 *135:8 *135:23 4.145 
4 *135:23 *135:27 2.1825 
5 *135:27 *410:B1 6.0325 
6 *135:27 *411:A1_N 1.6 
7 *135:23 *373:B 11.6 
*END

*D_NET *136 0.000807934
*CONN
*I *472:A I *D sky130_fd_sc_hd__buf_8
*I *402:X O *D sky130_fd_sc_hd__and3_4
*CAP
1 *472:A 0.00029456
2 *402:X 0.00029456
3 *472:A *353:A 0.000218815
4 result[7] *472:A 0
*RES
1 *402:X *472:A 13.425 
*END

*D_NET *137 0.00235033
*CONN
*I *473:A I *D sky130_fd_sc_hd__clkdlybuf4s25_1
*I *447:A I *D sky130_fd_sc_hd__or3_2
*I *407:X O *D sky130_fd_sc_hd__o32a_2
*CAP
1 *473:A 0
2 *447:A 0.000130613
3 *407:X 0.000291107
4 *137:12 0.00042172
5 *447:A *376:A2 0.000340831
6 *447:A *151:33 6.23512e-05
7 *447:A *151:63 9.55262e-06
8 *447:A *162:27 4.29365e-05
9 *137:12 *404:A1 0.000151984
10 *137:12 *162:10 5.20193e-05
11 *403:A2 *137:12 4.77769e-05
12 *406:A3 *447:A 7.01132e-05
13 *406:B1 *447:A 0.000121043
14 *407:A2 *137:12 0.000119247
15 *407:A3 *137:12 0.000417123
16 *460:A *137:12 9.56017e-06
17 *100:16 *447:A 4.12775e-05
18 *105:43 *137:12 2.10783e-05
*RES
1 *407:X *137:12 11.9 
2 *137:12 *447:A 6.205 
3 *137:12 *473:A 1.6 
*END

*D_NET *138 0.00193112
*CONN
*I *447:B I *D sky130_fd_sc_hd__or3_2
*I *474:A I *D sky130_fd_sc_hd__clkdlybuf4s25_1
*I *412:X O *D sky130_fd_sc_hd__or3_2
*CAP
1 *447:B 0.000128465
2 *474:A 0.000219725
3 *412:X 0.000133985
4 *138:6 0.000482175
5 *447:B *447:C 3.72081e-05
6 *474:A *376:A1 5.45609e-05
7 *373:A_N *447:B 0
8 *373:A_N *474:A 0.000206059
9 *373:B *447:B 2.49909e-05
10 *373:B *474:A 7.79462e-05
11 *376:B1 *474:A 8.49205e-05
12 *412:B *447:B 8.33066e-06
13 *412:B *138:6 8.64421e-05
14 *412:C *474:A 0.000318918
15 *412:C *138:6 4.57056e-05
16 *87:12 *474:A 2.16833e-05
*RES
1 *412:X *138:6 4.12 
2 *138:6 *474:A 8.425 
3 *138:6 *447:B 7.625 
*END

*D_NET *139 0.00137914
*CONN
*I *447:C I *D sky130_fd_sc_hd__or3_2
*I *475:A I *D sky130_fd_sc_hd__clkdlybuf4s25_1
*I *417:X O *D sky130_fd_sc_hd__o32a_2
*CAP
1 *447:C 0.000199442
2 *475:A 0.000220869
3 *417:X 0
4 *139:6 0.000420311
5 *373:B *447:C 6.69172e-05
6 *376:B1 *447:C 9.82748e-05
7 *377:B1 *447:C 8.28738e-05
8 *377:B1 *475:A 8.53113e-06
9 *406:B1 *447:C 8.33066e-06
10 *412:B *447:C 2.43782e-05
11 *412:B *475:A 8.89901e-05
12 *413:A1 *475:A 0
13 *417:A1 *475:A 3.42142e-05
14 *417:A2 *475:A 1.01661e-05
15 *447:B *447:C 3.72081e-05
16 *87:12 *447:C 5.70461e-06
17 *87:12 *475:A 7.29248e-05
18 *88:14 *475:A 0
19 *88:29 *475:A 0
*RES
1 *417:X *139:6 3.6 
2 *139:6 *475:A 8.04 
3 *139:6 *447:C 7.53 
*END

*D_NET *140 0.00344952
*CONN
*I *476:A I *D sky130_fd_sc_hd__clkdlybuf4s25_1
*I *448:B1 I *D sky130_fd_sc_hd__a2111o_2
*I *423:X O *D sky130_fd_sc_hd__o2bb2a_2
*CAP
1 *476:A 0.000111914
2 *448:B1 0.000503825
3 *423:X 0
4 *140:4 0.00061574
5 *448:B1 *362:B 0.000330261
6 *448:B1 *366:B 5.58209e-05
7 *448:B1 *421:A1 0.000367604
8 *448:B1 *448:C1 0.000445723
9 *448:B1 *477:A 0.00032648
10 *448:B1 *141:8 4.22675e-05
11 *448:B1 *157:16 7.71433e-05
12 *476:A *423:B2 0
13 *422:A2 *448:B1 3.84918e-06
14 *422:B2 *448:B1 1.94636e-05
15 *423:A1_N *448:B1 0.000295831
16 *423:A2_N *448:B1 2.65814e-06
17 *428:A2 *448:B1 4.99187e-05
18 *448:A2 *448:B1 0.000119873
19 *456:A *448:B1 8.11428e-05
*RES
1 *423:X *140:4 1.6 
2 *140:4 *448:B1 21.425 
3 *140:4 *476:A 3.355 
*END

*D_NET *141 0.00281362
*CONN
*I *448:C1 I *D sky130_fd_sc_hd__a2111o_2
*I *477:A I *D sky130_fd_sc_hd__clkdlybuf4s25_1
*I *428:X O *D sky130_fd_sc_hd__o32a_2
*CAP
1 *448:C1 0.000286105
2 *477:A 0.000178291
3 *428:X 8.15074e-05
4 *141:8 0.000545903
5 *448:C1 *362:B 1.92187e-05
6 *477:A *366:B 0.000326988
7 *141:8 *366:B 2.85623e-05
8 *362:A *448:C1 0.000235578
9 *422:A2 *141:8 4.28112e-06
10 *428:A2 *141:8 2.348e-05
11 *448:A2 *448:C1 1.91597e-05
12 *448:B1 *448:C1 0.000445723
13 *448:B1 *477:A 0.00032648
14 *448:B1 *141:8 4.22675e-05
15 *73:14 *141:8 7.03276e-05
16 *103:56 *477:A 6.81928e-05
17 *103:56 *141:8 1.29317e-05
18 *128:6 *448:C1 9.86257e-05
*RES
1 *428:X *141:8 5.235 
2 *141:8 *477:A 9.015 
3 *141:8 *448:C1 10.035 
*END

*D_NET *142 0.00194392
*CONN
*I *478:A I *D sky130_fd_sc_hd__dlymetal6s2s_1
*I *436:X O *D sky130_fd_sc_hd__and2_2
*CAP
1 *478:A 0.000298491
2 *436:X 0.000298491
3 *478:A *429:A 0.000231211
4 *478:A *149:18 0.000332723
5 *478:A *158:21 8.53113e-06
6 *478:A *158:34 5.11148e-06
7 *365:A *478:A 4.66108e-05
8 *383:A2 *478:A 4.21314e-05
9 *428:A1 *478:A 2.10905e-05
10 *428:A3 *478:A 6.11019e-05
11 *428:B1 *478:A 0.0004111
12 *432:A3 *478:A 2.49909e-05
13 *76:16 *478:A 0.000162332
*RES
1 *436:X *478:A 16.515 
*END

*D_NET *143 0.00132839
*CONN
*I *479:A I *D sky130_fd_sc_hd__dlymetal6s2s_1
*I *446:X O *D sky130_fd_sc_hd__and2_2
*CAP
1 *479:A 0.000424316
2 *446:X 0.000424316
3 *359:A2 *479:A 0.00015771
4 *384:B *479:A 0
5 *437:A *479:A 3.79532e-05
6 *438:B *479:A 0.000179714
7 *59:12 *479:A 5.54475e-05
8 *62:73 *479:A 4.89295e-05
*RES
1 *446:X *479:A 15.15 
*END

*D_NET *144 0.00196238
*CONN
*I *449:B1 I *D sky130_fd_sc_hd__a211oi_2
*I *480:A I *D sky130_fd_sc_hd__buf_6
*I *400:X O *D sky130_fd_sc_hd__o21a_4
*CAP
1 *449:B1 0.000132209
2 *480:A 0.000216575
3 *400:X 0
4 *144:4 0.000348784
5 *449:B1 *481:A 0.000120655
6 *449:B1 *161:42 7.23635e-05
7 *480:A *161:16 4.01778e-05
8 *480:A *161:27 2.75145e-05
9 *480:A *161:42 0.00037762
10 *390:B1 *449:B1 0.000136877
11 *449:C1 *449:B1 8.40213e-05
12 *63:84 *480:A 9.78539e-05
13 *103:16 *449:B1 0.00013521
14 *109:19 *449:B1 4.66742e-05
15 *109:19 *480:A 0.000125845
*RES
1 *400:X *144:4 1.6 
2 *144:4 *480:A 6.895 
3 *144:4 *449:B1 9.515 
*END

*D_NET *145 0.00127973
*CONN
*I *481:A I *D sky130_fd_sc_hd__buf_6
*I *449:Y O *D sky130_fd_sc_hd__a211oi_2
*CAP
1 *481:A 0.000452637
2 *449:Y 0.000452637
3 *481:A *399:B 8.65905e-05
4 *396:B *481:A 5.05521e-05
5 *398:D_N *481:A 4.82919e-05
6 *402:B *481:A 6.83659e-05
7 *449:B1 *481:A 0.000120655
*RES
1 *449:Y *481:A 10.22 
*END

*D_NET *146 0.00280955
*CONN
*I *350:A I *D sky130_fd_sc_hd__inv_2
*I *416:A1_N I *D sky130_fd_sc_hd__a2bb2o_2
*I *417:B2 I *D sky130_fd_sc_hd__o32a_2
*I *415:A2 I *D sky130_fd_sc_hd__a31o_2
*I *464:X O *D sky130_fd_sc_hd__clkdlybuf4s25_1
*CAP
1 *350:A 0.000257848
2 *416:A1_N 0
3 *417:B2 4.80061e-05
4 *415:A2 3.44327e-05
5 *464:X 0.000300745
6 *146:25 5.34895e-05
7 *146:21 0.000432937
8 *146:10 0.000504783
9 *350:A *372:B 4.69522e-06
10 *146:21 *367:B 0
11 *411:B1 *350:A 6.59269e-05
12 *411:B1 *417:B2 3.80322e-05
13 *411:B1 *146:25 4.16515e-06
14 *412:A *146:10 4.43871e-06
15 *412:A *146:21 0.000103722
16 *413:A1 *350:A 0.000150411
17 *415:B1 *350:A 1.7635e-05
18 *416:A2_N *417:B2 0.000151115
19 *416:A2_N *146:25 9.99636e-06
20 *416:B1 *350:A 2.49909e-05
21 *417:A3 *417:B2 0.00016031
22 *464:A *146:10 3.64998e-06
23 *82:31 *350:A 0.000130395
24 *88:14 *415:A2 5.97883e-06
25 *88:14 *146:10 0.000301843
*RES
1 *464:X *146:10 8.34 
2 *146:10 *415:A2 4.05 
3 *146:10 *146:21 2.655 
4 *146:21 *146:25 2.18 
5 *146:25 *417:B2 3.7 
6 *146:25 *416:A1_N 1.6 
7 *146:21 *350:A 6.08837 
*END

*D_NET *147 0.00518795
*CONN
*I *484:A I *D sky130_fd_sc_hd__buf_2
*I *488:A I *D sky130_fd_sc_hd__buf_2
*I *372:B I *D sky130_fd_sc_hd__xor2_2
*I *471:X O *D sky130_fd_sc_hd__buf_8
*CAP
1 *484:A 0.000174393
2 *488:A 0
3 *372:B 0.00176849
4 *471:X 0
5 *147:12 0.00216384
6 *147:6 0.000569741
7 *372:B *376:A2 1.00941e-05
8 *372:B *410:C1 1.53032e-05
9 *484:A *150:24 0
10 *147:12 *351:B 0.000134373
11 *147:12 *376:A2 8.54401e-05
12 *350:A *372:B 4.69522e-06
13 *372:A *372:B 0
14 *373:A_N *372:B 0
15 *377:A1 *372:B 0
16 *410:A1 *372:B 0.000153146
17 *410:A2 *372:B 0
18 *413:A1 *372:B 0
19 *415:B1 *147:12 9.53038e-05
20 *462:A *372:B 0
21 *83:8 *372:B 0
22 *134:83 *147:12 1.31307e-05
*RES
1 *471:X *147:6 3.6 
2 *147:6 *147:12 7.125 
3 *147:12 *372:B 13.2725 
4 *147:12 *488:A 3.6 
5 *147:6 *484:A 6.195 
*END

*D_NET *148 0.00572879
*CONN
*I *483:A I *D sky130_fd_sc_hd__buf_2
*I *353:A I *D sky130_fd_sc_hd__or3b_4
*I *450:X O *D sky130_fd_sc_hd__buf_6
*CAP
1 *483:A 0
2 *353:A 0.00125763
3 *450:X 0.000437801
4 *148:10 0.00169543
5 *353:A *151:12 0.000388506
6 *353:A *151:14 2.68111e-05
7 *353:A *161:16 0
8 *148:10 *161:8 0
9 *148:10 *161:16 0
10 overflow *353:A 0.000152503
11 *353:C_N *353:A 6.60042e-05
12 *385:B *148:10 0
13 *405:B *353:A 0.000192513
14 *406:B1 *353:A 5.57095e-05
15 *407:A2 *353:A 1.82111e-05
16 *460:A *353:A 0
17 *461:A *148:10 0.000235705
18 *472:A *353:A 0.000218815
19 *105:43 *353:A 3.32517e-05
20 *124:23 *353:A 8.35157e-05
21 *124:36 *353:A 0.000255515
22 *124:49 *353:A 9.10613e-05
23 *132:30 *353:A 0.000343757
24 *133:6 *148:10 0.00012657
25 *134:27 *353:A 7.18107e-06
26 *134:40 *353:A 4.22944e-05
*RES
1 *450:X *148:10 12.345 
2 *148:10 *353:A 31.84 
3 *148:10 *483:A 3.6 
*END

*D_NET *149 0.00944728
*CONN
*I *442:A1 I *D sky130_fd_sc_hd__a31o_2
*I *434:A1 I *D sky130_fd_sc_hd__a311o_2
*I *421:A1 I *D sky130_fd_sc_hd__a31oi_2
*I *426:A1 I *D sky130_fd_sc_hd__a31o_2
*I *388:B I *D sky130_fd_sc_hd__nor2_2
*I *352:B I *D sky130_fd_sc_hd__nand2_2
*I *389:B I *D sky130_fd_sc_hd__or2_2
*I *451:X O *D sky130_fd_sc_hd__clkdlybuf4s25_1
*CAP
1 *442:A1 0.000284247
2 *434:A1 0
3 *421:A1 0.000227912
4 *426:A1 3.98982e-05
5 *388:B 0
6 *352:B 0
7 *389:B 7.64139e-05
8 *451:X 0.000734171
9 *149:36 0.000271418
10 *149:26 0.000447979
11 *149:20 0.000318879
12 *149:18 0.000879124
13 *149:10 0.00107513
14 *421:A1 *421:A2 4.66108e-05
15 *421:A1 *426:A2 2.62258e-05
16 *421:A1 *157:10 0.000218302
17 *421:A1 *157:16 2.99445e-05
18 *421:A1 *158:6 8.35157e-05
19 *426:A1 *426:A2 2.08971e-05
20 *442:A1 *356:B 0.000829366
21 *442:A1 *385:A 2.03485e-05
22 *442:A1 *442:A2 0.00018966
23 *442:A1 *160:23 0.000140145
24 *442:A1 *160:25 0.000116908
25 *149:10 *356:B 9.3305e-05
26 *149:18 *158:21 0.000115075
27 *149:18 *159:10 0
28 *149:20 *426:A2 4.7072e-06
29 *149:36 *351:B 4.66108e-05
30 *352:A *389:B 3.63576e-05
31 *383:A2 *149:18 6.7449e-05
32 *388:A *149:36 9.09804e-05
33 *389:A *389:B 0.000122197
34 *415:B1 *149:36 1.38283e-05
35 *422:A2 *421:A1 6.73186e-05
36 *426:A3 *149:18 0.000113222
37 *426:B1 *149:26 4.77807e-05
38 *428:A1 *149:18 0.000100502
39 *428:A1 *149:26 8.46818e-05
40 *428:A2 *421:A1 4.77807e-05
41 *431:A1 *149:18 9.29751e-06
42 *432:A2 *149:18 4.30747e-05
43 *434:A3 *149:10 0
44 *434:B1 *149:18 0.000118743
45 *435:A1 *149:18 9.37731e-05
46 *442:A3 *442:A1 8.64421e-05
47 *448:B1 *421:A1 0.000367604
48 *478:A *149:18 0.000332723
49 *42:14 *149:18 0
50 *62:6 *149:36 0.000121036
51 *62:43 *149:26 0.00010565
52 *62:43 *149:36 3.20857e-05
53 *62:67 *149:18 3.47754e-05
54 *63:8 *389:B 6.72833e-06
55 *63:50 *149:36 0.000131525
56 *67:10 *149:10 0.00011379
57 *67:10 *149:18 0.000180689
58 *74:17 *149:18 6.99988e-05
59 *99:6 *149:26 4.77769e-05
60 *99:23 *149:26 0.000111946
61 *100:16 *389:B 0.000157378
62 *103:64 *389:B 1.32102e-05
63 *127:6 *421:A1 4.82863e-05
64 *134:83 *149:36 9.18556e-05
*RES
1 *451:X *149:10 9.57 
2 *149:10 *149:18 16.94 
3 *149:18 *149:20 0.45 
4 *149:20 *149:26 5.4 
5 *149:26 *149:36 8.86 
6 *149:36 *389:B 3.775 
7 *149:36 *352:B 1.6 
8 *149:26 *388:B 1.6 
9 *149:20 *426:A1 2.47 
10 *149:18 *421:A1 12.32 
11 *149:10 *434:A1 3.6 
12 *451:X *442:A1 13.01 
*END

*D_NET *150 0.00655008
*CONN
*I *356:B I *D sky130_fd_sc_hd__xor2_2
*I *385:A I *D sky130_fd_sc_hd__xnor2_2
*I *354:B I *D sky130_fd_sc_hd__xor2_2
*I *482:X O *D sky130_fd_sc_hd__buf_2
*CAP
1 *356:B 0.000562698
2 *385:A 0.000511851
3 *354:B 0
4 *482:X 0.0014416
5 *150:33 0.0012295
6 *150:24 0.00159655
7 *354:A *150:24 0
8 *354:A *150:33 0
9 *359:A2 *150:24 6.63219e-06
10 *438:B *150:24 8.31977e-06
11 *438:B *150:33 2.29223e-05
12 *442:A1 *356:B 0.000829366
13 *442:A1 *385:A 2.03485e-05
14 *442:A3 *385:A 7.08554e-05
15 *442:B1 *385:A 1.56428e-05
16 *442:B1 *150:24 0
17 *444:B1 *150:33 9.03081e-05
18 *482:A *150:24 2.24574e-05
19 *484:A *150:24 0
20 *96:10 *385:A 2.77183e-05
21 *149:10 *356:B 9.3305e-05
*RES
1 *482:X *150:24 8.64473 
2 *150:24 *354:B 2 
3 *150:24 *150:33 4.4 
4 *150:33 *385:A 9.43 
5 *150:33 *356:B 10.6725 
*END

*D_NET *151 0.0131098
*CONN
*I *403:C1 I *D sky130_fd_sc_hd__a221oi_2
*I *393:A1 I *D sky130_fd_sc_hd__a31o_2
*I *394:A_N I *D sky130_fd_sc_hd__nand3b_2
*I *351:B I *D sky130_fd_sc_hd__and2_2
*I *391:B I *D sky130_fd_sc_hd__and3b_2
*I *387:A I *D sky130_fd_sc_hd__nor2_2
*I *406:A1 I *D sky130_fd_sc_hd__a31o_2
*I *415:A1 I *D sky130_fd_sc_hd__a31o_2
*I *410:C1 I *D sky130_fd_sc_hd__o211a_2
*I *483:X O *D sky130_fd_sc_hd__buf_2
*CAP
1 *403:C1 0
2 *393:A1 0.000341806
3 *394:A_N 0
4 *351:B 0.000574833
5 *391:B 0.000143614
6 *387:A 1.19353e-05
7 *406:A1 0
8 *415:A1 0.000495464
9 *410:C1 0.000298072
10 *483:X 0.000402752
11 *151:100 0.000398208
12 *151:76 0.000718447
13 *151:74 0.000154017
14 *151:63 0.00035852
15 *151:52 0.000297908
16 *151:33 0.000983609
17 *151:14 0.000953565
18 *151:12 0.000619038
19 *393:A1 *393:A2 4.77757e-05
20 *415:A1 *376:A2 7.05754e-05
21 *151:12 *161:16 0.000154273
22 *151:33 *376:A2 8.41384e-05
23 *151:33 *403:B1 1.81547e-05
24 *151:33 *162:27 2.6348e-06
25 *151:52 *375:A 8.33066e-06
26 *151:52 *376:A2 1.0397e-05
27 overflow *151:12 0.000152503
28 result[0] *151:33 3.41184e-05
29 result[1] *410:C1 0
30 *353:A *151:12 0.000388506
31 *353:A *151:14 2.68111e-05
32 *372:B *410:C1 1.53032e-05
33 *376:B1 *151:63 1.28996e-05
34 *377:B1 *415:A1 0.000243539
35 *388:A *351:B 7.32625e-05
36 *392:A2 *393:A1 3.70548e-05
37 *392:A2 *151:74 3.46795e-05
38 *392:A2 *151:100 1.72491e-05
39 *393:A3 *393:A1 4.66108e-05
40 *398:A *393:A1 8.23457e-05
41 *402:A *151:12 9.15772e-05
42 *402:B *151:12 0.00018878
43 *402:C *393:A1 0.000289011
44 *406:A3 *151:52 2.85623e-05
45 *406:A3 *151:63 4.66108e-05
46 *406:B1 *351:B 5.83121e-06
47 *406:B1 *387:A 2.69217e-05
48 *406:B1 *151:63 8.92188e-05
49 *407:A1 *151:12 0.000136052
50 *407:A1 *151:14 0.000174586
51 *410:A1 *410:C1 0.000163634
52 *410:A1 *151:14 9.61238e-05
53 *410:A2 *410:C1 5.16418e-05
54 *410:B1 *410:C1 0.000102589
55 *412:A *415:A1 0.000498847
56 *412:B *410:C1 0
57 *413:A2 *415:A1 8.52845e-05
58 *413:B1 *415:A1 0.000163199
59 *414:B1 *415:A1 0.000125034
60 *415:A3 *415:A1 8.49205e-05
61 *442:B1 *393:A1 0.000121308
62 *447:A *151:33 6.23512e-05
63 *447:A *151:63 9.55262e-06
64 *448:D1 *351:B 0.000268146
65 *460:A *151:14 0
66 *485:A *393:A1 0.000185405
67 *62:6 *351:B 6.04372e-05
68 *100:16 *151:63 0.000119251
69 *100:20 *415:A1 0.000237984
70 *100:20 *151:52 4.31047e-05
71 *100:46 *151:52 9.17382e-07
72 *100:46 *151:100 0
73 *102:10 *393:A1 6.19385e-05
74 *102:10 *151:100 5.31158e-06
75 *103:16 *393:A1 0.000256575
76 *105:12 *151:100 1.88602e-05
77 *105:43 *415:A1 3.2511e-05
78 *105:43 *151:52 3.43898e-05
79 *124:10 *151:33 4.40693e-06
80 *131:10 *393:A1 0.000149531
81 *132:30 *387:A 4.77807e-05
82 *134:27 *151:14 1.74235e-05
83 *134:40 *351:B 2.69217e-05
84 *134:40 *391:B 0.000110483
85 *134:49 *351:B 8.47185e-05
86 *134:68 *351:B 9.77362e-05
87 *134:75 *351:B 8.41384e-05
88 *134:83 *351:B 1.46781e-05
89 *135:23 *415:A1 1.1561e-05
90 *147:12 *351:B 0.000134373
91 *149:36 *351:B 4.66108e-05
*RES
1 *483:X *151:12 14.985 
2 *151:12 *151:14 4.695 
3 *151:14 *410:C1 9.63 
4 *151:14 *151:33 9.28 
5 *151:33 *415:A1 16.005 
6 *151:33 *151:52 3.38 
7 *151:52 *406:A1 1.6 
8 *151:52 *151:63 5.555 
9 *151:63 *387:A 4.05 
10 *151:63 *151:74 1.635 
11 *151:74 *151:76 2 
12 *151:76 *391:B 3.43 
13 *151:76 *351:B 14.69 
14 *151:74 *151:100 0.87 
15 *151:100 *394:A_N 3.6 
16 *151:100 *393:A1 14.31 
17 *151:12 *403:C1 3.6 
*END

*D_NET *152 0.00520031
*CONN
*I *366:B I *D sky130_fd_sc_hd__xor2_2
*I *362:B I *D sky130_fd_sc_hd__xor2_2
*I *484:X O *D sky130_fd_sc_hd__buf_2
*CAP
1 *366:B 0.000564366
2 *362:B 0.00148205
3 *484:X 0.000917686
4 result[3] *366:B 0
5 *362:A *362:B 1.62441e-05
6 *366:A *366:B 0
7 *422:B2 *366:B 0
8 *423:A1_N *366:B 0.000284375
9 *428:B1 *362:B 0.000339639
10 *448:A1 *362:B 0.000230033
11 *448:A2 *362:B 0.00026755
12 *448:B1 *362:B 0.000330261
13 *448:B1 *366:B 5.58209e-05
14 *448:C1 *362:B 1.92187e-05
15 *449:C1 *362:B 9.05535e-05
16 *477:A *366:B 0.000326988
17 *73:14 *362:B 2.91561e-06
18 *77:17 *366:B 0
19 *99:23 *362:B 2.88689e-05
20 *103:56 *366:B 0.000215177
21 *141:8 *366:B 2.85623e-05
*RES
1 *484:X *362:B 19.7975 
2 *362:B *366:B 16.345 
*END

*D_NET *153 0.00121613
*CONN
*I *399:B I *D sky130_fd_sc_hd__nand2_2
*I *485:X O *D sky130_fd_sc_hd__buf_6
*CAP
1 *399:B 0.00022531
2 *485:X 0.00022531
3 *399:B *390:A2 2.15594e-05
4 *399:B *161:27 0
5 *396:A *399:B 8.23457e-05
6 *396:B *399:B 0.000118081
7 *398:A *399:B 1.19928e-05
8 *398:D_N *399:B 0.000284976
9 *407:B1 *399:B 0
10 *481:A *399:B 8.65905e-05
11 *109:12 *399:B 0.00015997
*RES
1 *485:X *399:B 13.065 
*END

*D_NET *154 0.00200556
*CONN
*I *390:A2 I *D sky130_fd_sc_hd__a211o_2
*I *486:X O *D sky130_fd_sc_hd__buf_2
*CAP
1 *390:A2 0.000394418
2 *486:X 0.000394418
3 *390:A1 *390:A2 0.000464811
4 *397:B *390:A2 0.00023468
5 *397:C *390:A2 8.23457e-05
6 *398:D_N *390:A2 0.000413328
7 *399:B *390:A2 2.15594e-05
*RES
1 *486:X *390:A2 15.87 
*END

*D_NET *155 0.000682663
*CONN
*I *418:A2 I *D sky130_fd_sc_hd__a21oi_2
*I *487:X O *D sky130_fd_sc_hd__buf_2
*CAP
1 *418:A2 0.000229848
2 *487:X 0.000229848
3 *378:B1 *418:A2 1.08758e-05
4 *417:B1 *418:A2 1.61831e-05
5 *423:B1 *418:A2 0.000168393
6 *61:10 *418:A2 2.75145e-05
*RES
1 *487:X *418:A2 7.58 
*END

*D_NET *156 0.00360216
*CONN
*I *376:A2 I *D sky130_fd_sc_hd__o21ai_2
*I *367:B I *D sky130_fd_sc_hd__xor2_2
*I *488:X O *D sky130_fd_sc_hd__buf_2
*CAP
1 *376:A2 0.000573104
2 *367:B 0.000288762
3 *488:X 0
4 *156:6 0.000861866
5 *372:B *376:A2 1.00941e-05
6 *412:A *367:B 0
7 *412:A *376:A2 0
8 *415:A1 *376:A2 7.05754e-05
9 *415:A3 *367:B 4.66372e-05
10 *415:B1 *367:B 0.000314351
11 *415:B1 *376:A2 0.000202575
12 *416:B2 *367:B 5.93727e-05
13 *447:A *376:A2 0.000340831
14 *100:16 *376:A2 0.000500041
15 *105:43 *376:A2 0.000153979
16 *146:21 *367:B 0
17 *147:12 *376:A2 8.54401e-05
18 *151:33 *376:A2 8.41384e-05
19 *151:52 *376:A2 1.0397e-05
*RES
1 *488:X *156:6 3.6 
2 *156:6 *367:B 7.46 
3 *156:6 *376:A2 20.275 
*END

*D_NET *157 0.00302716
*CONN
*I *422:A1 I *D sky130_fd_sc_hd__o221a_2
*I *421:A2 I *D sky130_fd_sc_hd__a31oi_2
*I *423:B2 I *D sky130_fd_sc_hd__o2bb2a_2
*I *349:A I *D sky130_fd_sc_hd__inv_2
*I *465:X O *D sky130_fd_sc_hd__clkdlybuf4s25_1
*CAP
1 *422:A1 0.000101026
2 *421:A2 9.12678e-05
3 *423:B2 2.78682e-05
4 *349:A 3.71339e-05
5 *465:X 0.000308472
6 *157:16 0.000172975
7 *157:10 0.000283881
8 *157:6 0.000494138
9 *378:A2 *349:A 4.82863e-05
10 *421:A1 *421:A2 4.66108e-05
11 *421:A1 *157:10 0.000218302
12 *421:A1 *157:16 2.99445e-05
13 *422:A2 *422:A1 1.77945e-05
14 *422:A2 *157:6 4.66108e-05
15 *422:A2 *157:10 2.85623e-05
16 *422:B1 *157:6 0.000363707
17 *422:B2 *157:10 0.000145925
18 *422:B2 *157:16 0.000178357
19 *423:A2_N *349:A 9.91257e-05
20 *423:A2_N *157:16 4.66742e-05
21 *423:B1 *349:A 4.47209e-05
22 *423:B1 *423:B2 3.26889e-05
23 *448:B1 *157:16 7.71433e-05
24 *476:A *423:B2 0
25 *103:56 *422:A1 1.74678e-05
26 *103:56 *157:6 9.63925e-06
27 *127:6 *421:A2 5.88334e-05
*RES
1 *465:X *157:6 5.845 
2 *157:6 *157:10 4.655 
3 *157:10 *157:16 4.94 
4 *157:16 *349:A 3.085 
5 *157:16 *423:B2 2.215 
6 *157:10 *421:A2 5.085 
7 *157:6 *422:A1 3.01 
*END

*D_NET *158 0.00290213
*CONN
*I *364:A_N I *D sky130_fd_sc_hd__and2b_2
*I *363:B I *D sky130_fd_sc_hd__and2b_2
*I *427:A1_N I *D sky130_fd_sc_hd__a2bb2o_2
*I *428:B2 I *D sky130_fd_sc_hd__o32a_2
*I *426:A2 I *D sky130_fd_sc_hd__a31o_2
*I *466:X O *D sky130_fd_sc_hd__clkdlybuf4s25_1
*CAP
1 *364:A_N 0
2 *363:B 0.000106291
3 *427:A1_N 3.04394e-05
4 *428:B2 0
5 *426:A2 8.29601e-05
6 *466:X 3.72832e-05
7 *158:47 0.000255564
8 *158:34 0.000318194
9 *158:21 0.00028384
10 *158:6 0.000265602
11 *363:A_N *363:B 4.82863e-05
12 *383:A2 *363:B 8.65905e-05
13 *383:A2 *158:47 0.000120228
14 *421:A1 *426:A2 2.62258e-05
15 *421:A1 *158:6 8.35157e-05
16 *422:A2 *427:A1_N 1.60083e-05
17 *422:A2 *158:21 0.000305895
18 *422:A2 *158:34 6.28843e-05
19 *426:A1 *426:A2 2.08971e-05
20 *426:A3 *158:21 0.00013475
21 *428:A1 *158:34 3.112e-05
22 *428:A2 *158:21 2.3228e-05
23 *428:A3 *427:A1_N 1.83847e-05
24 *428:A3 *158:21 9.50342e-06
25 *428:A3 *158:34 9.37731e-05
26 *431:B1 *427:A1_N 0.000105748
27 *431:B1 *158:47 6.14602e-05
28 *478:A *158:21 8.53113e-06
29 *478:A *158:34 5.11148e-06
30 *42:14 *158:47 5.21545e-05
31 *73:14 *158:34 0
32 *73:14 *158:47 0
33 *76:16 *158:34 3.05373e-05
34 *76:16 *158:47 5.7344e-05
35 *149:18 *158:21 0.000115075
36 *149:20 *426:A2 4.7072e-06
*RES
1 *466:X *158:6 2.395 
2 *158:6 *426:A2 3.01 
3 *158:6 *158:21 8.44 
4 *158:21 *428:B2 1.6 
5 *158:21 *158:34 5.045 
6 *158:34 *427:A1_N 4.5675 
7 *158:34 *158:47 5.93 
8 *158:47 *363:B 3.55 
9 *158:47 *364:A_N 1.6 
*END

*D_NET *159 0.00509066
*CONN
*I *433:A1_N I *D sky130_fd_sc_hd__a2bb2o_2
*I *434:A2 I *D sky130_fd_sc_hd__a311o_2
*I *357:A_N I *D sky130_fd_sc_hd__and2b_2
*I *429:A I *D sky130_fd_sc_hd__or2_2
*I *360:B I *D sky130_fd_sc_hd__and2b_2
*I *467:X O *D sky130_fd_sc_hd__clkdlybuf4s25_1
*CAP
1 *433:A1_N 6.16414e-05
2 *434:A2 0
3 *357:A_N 9.71884e-06
4 *429:A 0.000528046
5 *360:B 0
6 *467:X 0.000334784
7 *159:31 0.000724113
8 *159:23 0.000283015
9 *159:21 0.00025461
10 *159:10 0.000431086
11 *358:A_N *159:31 0
12 *358:B *159:23 0.000119756
13 *358:B *159:31 0.0001249
14 *363:A_N *159:10 9.52646e-05
15 *365:B *159:10 2.31329e-05
16 *383:A1 *429:A 0.000332809
17 *425:A *429:A 9.54469e-05
18 *428:B1 *429:A 9.72844e-05
19 *430:B *159:21 8.70923e-05
20 *434:A3 *159:31 0.000117519
21 *434:B1 *429:A 3.60566e-05
22 *434:B1 *159:23 3.96653e-05
23 *434:B1 *159:31 0.000229152
24 *434:C1 *433:A1_N 9.53428e-06
25 *434:C1 *159:23 8.65905e-05
26 *435:B1 *429:A 0.000139523
27 *435:B1 *159:31 7.7615e-05
28 *478:A *429:A 0.000231211
29 *41:6 *429:A 8.52972e-05
30 *42:14 *159:10 0
31 *42:14 *159:21 0
32 *62:67 *429:A 0.000205664
33 *67:10 *159:10 0
34 *67:10 *159:21 0
35 *68:10 *159:21 6.23288e-05
36 *71:10 *357:A_N 4.82919e-05
37 *92:23 *429:A 3.13459e-05
38 *103:48 *433:A1_N 2.34526e-05
39 *103:48 *159:23 1.6418e-05
40 *105:108 *357:A_N 4.82919e-05
41 *149:18 *159:10 0
*RES
1 *467:X *159:10 8.01 
2 *159:10 *360:B 3.6 
3 *159:10 *159:21 4.145 
4 *159:21 *159:23 2.175 
5 *159:23 *159:31 6.845 
6 *159:31 *429:A 16.515 
7 *159:31 *357:A_N 4.05 
8 *159:23 *434:A2 1.6 
9 *159:21 *433:A1_N 2.785 
*END

*D_NET *160 0.00341864
*CONN
*I *443:A I *D sky130_fd_sc_hd__nor2_2
*I *438:A I *D sky130_fd_sc_hd__xnor2_2
*I *442:A2 I *D sky130_fd_sc_hd__a31o_2
*I *348:A I *D sky130_fd_sc_hd__inv_2
*I *468:X O *D sky130_fd_sc_hd__clkdlybuf4s25_1
*CAP
1 *443:A 0.000139253
2 *438:A 1.8388e-05
3 *442:A2 0.000277209
4 *348:A 0.000100554
5 *468:X 0.000407282
6 *160:25 0.000381554
7 *160:23 0.000320833
8 *160:10 0.000603459
9 *358:A_N *348:A 0
10 *439:A *348:A 0
11 *439:A *443:A 0.000309722
12 *442:A1 *442:A2 0.00018966
13 *442:A1 *160:23 0.000140145
14 *442:A1 *160:25 0.000116908
15 *444:A2 *443:A 0.00011379
16 *444:A2 *160:23 3.57349e-05
17 *444:A2 *160:25 4.66108e-05
18 *444:C1 *348:A 4.18603e-06
19 *445:B1 *443:A 6.09195e-05
20 *451:A *160:10 5.33874e-05
21 *468:A *160:10 5.0751e-05
22 *49:6 *160:23 4.82919e-05
*RES
1 *468:X *160:10 9.045 
2 *160:10 *348:A 5.235 
3 *160:10 *160:23 4.175 
4 *160:23 *160:25 1.83 
5 *160:25 *442:A2 5.275 
6 *160:25 *438:A 1.96 
7 *160:23 *443:A 9.53 
*END

*D_NET *161 0.00476458
*CONN
*I *395:A1_N I *D sky130_fd_sc_hd__a2bb2o_2
*I *384:A I *D sky130_fd_sc_hd__xnor2_2
*I *401:B1 I *D sky130_fd_sc_hd__a21o_2
*I *393:A2 I *D sky130_fd_sc_hd__a31o_2
*I *399:A I *D sky130_fd_sc_hd__nand2_2
*I *400:A1 I *D sky130_fd_sc_hd__o21a_4
*I *469:X O *D sky130_fd_sc_hd__clkdlybuf4s25_1
*CAP
1 *395:A1_N 0.000142029
2 *384:A 4.71875e-05
3 *401:B1 0
4 *393:A2 0.000186956
5 *399:A 3.88162e-05
6 *400:A1 0
7 *469:X 6.858e-05
8 *161:62 0.000189216
9 *161:42 0.000731533
10 *161:27 0.000634821
11 *161:16 0.000345967
12 *161:8 0.000363118
13 *353:A *161:16 0
14 *384:B *384:A 2.75145e-05
15 *384:B *393:A2 4.9968e-05
16 *384:B *395:A1_N 0.00019055
17 *393:A1 *393:A2 4.77757e-05
18 *398:A *161:16 0.000140905
19 *399:B *161:27 0
20 *401:A1 *161:42 5.66821e-05
21 *402:A *161:16 0.000141606
22 *407:B1 *399:A 0.000116158
23 *407:B1 *161:27 5.16418e-05
24 *449:B1 *161:42 7.23635e-05
25 *459:A *399:A 6.47594e-05
26 *459:A *161:8 5.62618e-05
27 *459:A *161:16 0.000132436
28 *459:A *161:27 3.76596e-05
29 *480:A *161:16 4.01778e-05
30 *480:A *161:27 2.75145e-05
31 *480:A *161:42 0.00037762
32 *63:84 *161:16 0
33 *109:19 *161:42 2.67275e-05
34 *131:10 *393:A2 0.000203762
35 *148:10 *161:8 0
36 *148:10 *161:16 0
37 *151:12 *161:16 0.000154273
*RES
1 *469:X *161:8 4.98 
2 *161:8 *161:16 9.47 
3 *161:16 *400:A1 1.6 
4 *161:16 *161:27 3.32 
5 *161:27 *399:A 4.98 
6 *161:27 *161:42 8.93 
7 *161:42 *393:A2 8.96 
8 *161:42 *401:B1 1.6 
9 *161:8 *161:62 2 
10 *161:62 *384:A 2.395 
11 *161:62 *395:A1_N 4.6375 
*END

*D_NET *162 0.00405193
*CONN
*I *376:A1 I *D sky130_fd_sc_hd__o21ai_2
*I *404:A1 I *D sky130_fd_sc_hd__o22a_2
*I *406:A2 I *D sky130_fd_sc_hd__a31o_2
*I *375:A I *D sky130_fd_sc_hd__nand2_2
*I *403:B1 I *D sky130_fd_sc_hd__a221oi_2
*I *470:X O *D sky130_fd_sc_hd__clkdlybuf4s25_1
*CAP
1 *376:A1 3.37867e-05
2 *404:A1 0.000345252
3 *406:A2 0
4 *375:A 0.0001287
5 *403:B1 0.000259394
6 *470:X 0.000149564
7 *162:27 0.000277993
8 *162:12 0.000408687
9 *162:10 0.000476115
10 *162:6 0.000314214
11 result[1] *162:6 4.82919e-05
12 *373:A_N *376:A1 6.36837e-05
13 *373:A_N *162:6 8.49205e-05
14 *373:A_N *162:10 1.49561e-05
15 *402:C *404:A1 5.09431e-05
16 *403:A2 *404:A1 0.000109209
17 *404:A2 *404:A1 0
18 *405:B *403:B1 4.82172e-06
19 *406:A3 *375:A 4.4022e-05
20 *406:A3 *162:27 4.77807e-05
21 *407:A1 *404:A1 8.64599e-05
22 *407:B1 *403:B1 0.000102782
23 *407:B1 *404:A1 0.000119478
24 *412:C *376:A1 1.06995e-05
25 *412:C *162:6 1.4399e-05
26 *447:A *162:27 4.29365e-05
27 *474:A *376:A1 5.45609e-05
28 *105:43 *375:A 9.05592e-05
29 *105:43 *404:A1 3.42161e-05
30 *105:43 *162:10 5.21974e-05
31 *124:10 *403:B1 0.00010903
32 *124:23 *403:B1 0.000152433
33 *132:30 *375:A 7.48808e-05
34 *134:27 *403:B1 1.18413e-05
35 *137:12 *404:A1 0.000151984
36 *137:12 *162:10 5.20193e-05
37 *151:33 *403:B1 1.81547e-05
38 *151:33 *162:27 2.6348e-06
39 *151:52 *375:A 8.33066e-06
*RES
1 *470:X *162:6 4.12 
2 *162:6 *162:10 4.4 
3 *162:10 *162:12 2 
4 *162:12 *403:B1 10.76 
5 *162:12 *162:27 1.83 
6 *162:27 *375:A 8.225 
7 *162:27 *406:A2 1.6 
8 *162:10 *404:A1 10.305 
9 *162:6 *376:A1 2.86 
*END
