*SPEF "ieee 1481-1999"
*DESIGN "alu_8bit"
*DATE "04:42:14 Saturday September 26, 2026"
*VENDOR "The OpenROAD Project"
*PROGRAM "OpenROAD"
*VERSION "dcf36133a369abc8f3c5e5738cd4d82e4903c0e0"
*DESIGN_FLOW "NAME_SCOPE LOCAL" "PIN_CAP NONE"
*DIVIDER /
*DELIMITER :
*BUS_DELIMITER []
*T_UNIT 1 NS
*C_UNIT 1 PF
*R_UNIT 1 OHM
*L_UNIT 1 HENRY

*NAME_MAP
*3 a[0]
*4 a[1]
*5 a[2]
*6 a[3]
*7 a[4]
*8 a[5]
*9 a[6]
*10 a[7]
*11 b[0]
*12 b[1]
*13 b[2]
*14 b[3]
*15 b[4]
*16 b[5]
*17 b[6]
*18 b[7]
*19 opcode[0]
*20 opcode[1]
*21 opcode[2]
*22 overflow
*23 result[0]
*24 result[1]
*25 result[2]
*26 result[3]
*27 result[4]
*28 result[5]
*29 result[6]
*30 result[7]
*31 zero
*32 _000_
*33 _001_
*34 _002_
*35 _003_
*36 _004_
*37 _005_
*38 _006_
*39 _007_
*40 _008_
*41 _009_
*42 _010_
*43 _011_
*44 _012_
*45 _013_
*46 _014_
*47 _015_
*48 _016_
*49 _017_
*50 _018_
*51 _019_
*52 _020_
*53 _021_
*54 _022_
*55 _023_
*56 _024_
*57 _025_
*58 _026_
*59 _027_
*60 _028_
*61 _029_
*62 _030_
*63 _031_
*64 _032_
*65 _033_
*66 _034_
*67 _035_
*68 _036_
*69 _037_
*70 _038_
*71 _039_
*72 _040_
*73 _041_
*74 _042_
*75 _043_
*76 _044_
*77 _045_
*78 _046_
*79 _047_
*80 _048_
*81 _049_
*82 _050_
*83 _051_
*84 _052_
*85 _053_
*86 _054_
*87 _055_
*88 _056_
*89 _057_
*90 _058_
*91 _059_
*92 _060_
*93 _061_
*94 _062_
*95 _063_
*96 _064_
*97 _065_
*98 _066_
*99 _067_
*100 _068_
*101 _069_
*102 _070_
*103 _071_
*104 _072_
*105 _073_
*106 _074_
*107 _075_
*108 _076_
*109 _077_
*110 _078_
*111 _079_
*112 _080_
*113 _081_
*114 _082_
*115 _083_
*116 _084_
*117 _085_
*118 _086_
*119 _087_
*120 _088_
*121 _089_
*122 _090_
*123 _091_
*124 net1
*125 net10
*126 net11
*127 net12
*128 net13
*129 net14
*130 net15
*131 net16
*132 net17
*133 net18
*134 net19
*135 net2
*136 net20
*137 net21
*138 net22
*139 net23
*140 net24
*141 net25
*142 net26
*143 net27
*144 net28
*145 net29
*146 net3
*147 net30
*148 net31
*149 net32
*150 net33
*151 net34
*152 net35
*153 net36
*154 net37
*155 net38
*156 net39
*157 net4
*158 net5
*159 net6
*160 net7
*161 net8
*162 net9
*163 FILLER_0_29
*164 FILLER_0_32
*165 FILLER_0_62
*166 FILLER_0_65
*167 FILLER_0_68
*168 FILLER_0_71
*169 FILLER_0_74
*170 FILLER_0_77
*171 FILLER_0_80
*172 FILLER_0_83
*173 FILLER_0_85
*174 FILLER_0_88
*175 FILLER_10_12
*176 FILLER_10_25
*177 FILLER_10_36
*178 FILLER_10_55
*179 FILLER_10_58
*180 FILLER_10_90
*181 FILLER_11_15
*182 FILLER_11_43
*183 FILLER_11_46
*184 FILLER_11_50
*185 FILLER_11_53
*186 FILLER_11_67
*187 FILLER_12_27
*188 FILLER_12_47
*189 FILLER_12_53
*190 FILLER_12_56
*191 FILLER_12_59
*192 FILLER_12_62
*193 FILLER_12_65
*194 FILLER_12_80
*195 FILLER_12_83
*196 FILLER_12_85
*197 FILLER_12_88
*198 FILLER_13_28
*199 FILLER_13_43
*200 FILLER_13_55
*201 FILLER_13_64
*202 FILLER_13_84
*203 FILLER_13_87
*204 FILLER_13_90
*205 FILLER_14_24
*206 FILLER_14_27
*207 FILLER_14_29
*208 FILLER_14_59
*209 FILLER_14_62
*210 FILLER_14_81
*211 FILLER_14_85
*212 FILLER_14_88
*213 FILLER_15_21
*214 FILLER_15_24
*215 FILLER_15_27
*216 FILLER_15_29
*217 FILLER_15_50
*218 FILLER_15_53
*219 FILLER_15_65
*220 FILLER_15_68
*221 FILLER_15_77
*222 FILLER_15_80
*223 FILLER_15_83
*224 FILLER_15_85
*225 FILLER_15_88
*226 FILLER_1_24
*227 FILLER_1_27
*228 FILLER_1_57
*229 FILLER_1_66
*230 FILLER_1_69
*231 FILLER_1_72
*232 FILLER_1_88
*233 FILLER_2_11
*234 FILLER_2_27
*235 FILLER_2_64
*236 FILLER_2_82
*237 FILLER_2_85
*238 FILLER_2_88
*239 FILLER_3_12
*240 FILLER_3_24
*241 FILLER_3_27
*242 FILLER_3_3
*243 FILLER_3_71
*244 FILLER_3_82
*245 FILLER_4_26
*246 FILLER_4_42
*247 FILLER_4_47
*248 FILLER_4_50
*249 FILLER_4_53
*250 FILLER_4_56
*251 FILLER_4_65
*252 FILLER_4_85
*253 FILLER_4_88
*254 FILLER_5_26
*255 FILLER_5_35
*256 FILLER_5_38
*257 FILLER_5_41
*258 FILLER_5_53
*259 FILLER_5_81
*260 FILLER_6_29
*261 FILLER_6_3
*262 FILLER_6_44
*263 FILLER_6_47
*264 FILLER_6_59
*265 FILLER_6_62
*266 FILLER_6_85
*267 FILLER_6_88
*268 FILLER_7_49
*269 FILLER_7_52
*270 FILLER_7_55
*271 FILLER_7_67
*272 FILLER_8_36
*273 FILLER_8_42
*274 FILLER_8_48
*275 FILLER_8_68
*276 FILLER_8_71
*277 FILLER_8_81
*278 FILLER_8_85
*279 FILLER_8_88
*280 FILLER_9_12
*281 FILLER_9_26
*282 FILLER_9_43
*283 FILLER_9_51
*284 FILLER_9_54
*285 FILLER_9_57
*286 FILLER_9_73
*287 FILLER_9_85
*288 FILLER_9_88
*289 PHY_EDGE_ROW_0_Left_16
*290 PHY_EDGE_ROW_0_Right_0
*291 PHY_EDGE_ROW_10_Left_26
*292 PHY_EDGE_ROW_10_Right_10
*293 PHY_EDGE_ROW_11_Left_27
*294 PHY_EDGE_ROW_11_Right_11
*295 PHY_EDGE_ROW_12_Left_28
*296 PHY_EDGE_ROW_12_Right_12
*297 PHY_EDGE_ROW_13_Left_29
*298 PHY_EDGE_ROW_13_Right_13
*299 PHY_EDGE_ROW_14_Left_30
*300 PHY_EDGE_ROW_14_Right_14
*301 PHY_EDGE_ROW_15_Left_31
*302 PHY_EDGE_ROW_15_Right_15
*303 PHY_EDGE_ROW_1_Left_17
*304 PHY_EDGE_ROW_1_Right_1
*305 PHY_EDGE_ROW_2_Left_18
*306 PHY_EDGE_ROW_2_Right_2
*307 PHY_EDGE_ROW_3_Left_19
*308 PHY_EDGE_ROW_3_Right_3
*309 PHY_EDGE_ROW_4_Left_20
*310 PHY_EDGE_ROW_4_Right_4
*311 PHY_EDGE_ROW_5_Left_21
*312 PHY_EDGE_ROW_5_Right_5
*313 PHY_EDGE_ROW_6_Left_22
*314 PHY_EDGE_ROW_6_Right_6
*315 PHY_EDGE_ROW_7_Left_23
*316 PHY_EDGE_ROW_7_Right_7
*317 PHY_EDGE_ROW_8_Left_24
*318 PHY_EDGE_ROW_8_Right_8
*319 PHY_EDGE_ROW_9_Left_25
*320 PHY_EDGE_ROW_9_Right_9
*321 TAP_TAPCELL_ROW_0_32
*322 TAP_TAPCELL_ROW_0_33
*323 TAP_TAPCELL_ROW_0_34
*324 TAP_TAPCELL_ROW_10_48
*325 TAP_TAPCELL_ROW_10_49
*326 TAP_TAPCELL_ROW_11_50
*327 TAP_TAPCELL_ROW_12_51
*328 TAP_TAPCELL_ROW_12_52
*329 TAP_TAPCELL_ROW_13_53
*330 TAP_TAPCELL_ROW_14_54
*331 TAP_TAPCELL_ROW_14_55
*332 TAP_TAPCELL_ROW_15_56
*333 TAP_TAPCELL_ROW_15_57
*334 TAP_TAPCELL_ROW_15_58
*335 TAP_TAPCELL_ROW_1_35
*336 TAP_TAPCELL_ROW_2_36
*337 TAP_TAPCELL_ROW_2_37
*338 TAP_TAPCELL_ROW_3_38
*339 TAP_TAPCELL_ROW_4_39
*340 TAP_TAPCELL_ROW_4_40
*341 TAP_TAPCELL_ROW_5_41
*342 TAP_TAPCELL_ROW_6_42
*343 TAP_TAPCELL_ROW_6_43
*344 TAP_TAPCELL_ROW_7_44
*345 TAP_TAPCELL_ROW_8_45
*346 TAP_TAPCELL_ROW_8_46
*347 TAP_TAPCELL_ROW_9_47
*348 _092_
*349 _093_
*350 _094_
*351 _095_
*352 _096_
*353 _097_
*354 _098_
*355 _099_
*356 _100_
*357 _101_
*358 _102_
*359 _103_
*360 _104_
*361 _105_
*362 _106_
*363 _107_
*364 _108_
*365 _109_
*366 _110_
*367 _111_
*368 _112_
*369 _113_
*370 _114_
*371 _115_
*372 _116_
*373 _117_
*374 _118_
*375 _119_
*376 _120_
*377 _121_
*378 _122_
*379 _123_
*380 _124_
*381 _125_
*382 _126_
*383 _127_
*384 _128_
*385 _129_
*386 _130_
*387 _131_
*388 _132_
*389 _133_
*390 _134_
*391 _135_
*392 _136_
*393 _137_
*394 _138_
*395 _139_
*396 _140_
*397 _141_
*398 _142_
*399 _143_
*400 _144_
*401 _145_
*402 _146_
*403 _147_
*404 _148_
*405 _149_
*406 _150_
*407 _151_
*408 _152_
*409 _153_
*410 _154_
*411 _155_
*412 _156_
*413 _157_
*414 _158_
*415 _159_
*416 _160_
*417 _161_
*418 _162_
*419 _163_
*420 _164_
*421 _165_
*422 _166_
*423 _167_
*424 _168_
*425 _169_
*426 _170_
*427 _171_
*428 _172_
*429 _173_
*430 _174_
*431 _175_
*432 _176_
*433 _177_
*434 _178_
*435 _179_
*436 _180_
*437 _181_
*438 _182_
*439 _183_
*440 _184_
*441 _185_
*442 _186_
*443 _187_
*444 _188_
*445 _189_
*446 _190_
*447 _191_
*448 _192_
*449 _193_
*450 fanout31
*451 fanout32
*452 input1
*453 input10
*454 input11
*455 input12
*456 input13
*457 input14
*458 input15
*459 input16
*460 input17
*461 input18
*462 input19
*463 input2
*464 input3
*465 input4
*466 input5
*467 input6
*468 input7
*469 input8
*470 input9
*471 max_cap30
*472 output20
*473 output21
*474 output22
*475 output23
*476 output24
*477 output25
*478 output26
*479 output27
*480 output28
*481 output29
*482 rebuffer33
*483 rebuffer34
*484 rebuffer35
*485 rebuffer36
*486 rebuffer37
*487 rebuffer38
*488 rebuffer39

*PORTS
a[0] I
a[1] I
a[2] I
a[3] I
a[4] I
a[5] I
a[6] I
a[7] I
b[0] I
b[1] I
b[2] I
b[3] I
b[4] I
b[5] I
b[6] I
b[7] I
opcode[0] I
opcode[1] I
opcode[2] I
overflow O
result[0] O
result[1] O
result[2] O
result[3] O
result[4] O
result[5] O
result[6] O
result[7] O
zero O

*D_NET *3 0.0013569
*CONN
*P a[0] I
*I *452:A I *D sky130_fd_sc_hd__clkdlybuf4s25_1
*CAP
1 a[0] 0.000427834
2 *452:A 0.000427834
3 *452:A result[0] 0.000143633
4 *452:A *460:A 0.000164154
5 *452:A *462:A 3.6994e-05
6 *452:A *470:A 0.000156446
*RES
1 a[0] *452:A 25.396 
*END

*D_NET *4 0.00094495
*CONN
*P a[1] I
*I *463:A I *D sky130_fd_sc_hd__clkdlybuf4s25_1
*CAP
1 a[1] 0.000433127
2 *463:A 0.000433127
3 *463:A result[1] 0
4 *463:A *453:A 7.86968e-05
*RES
1 a[1] *463:A 23.9483 
*END

*D_NET *5 0.0012928
*CONN
*P a[2] I
*I *464:A I *D sky130_fd_sc_hd__clkdlybuf4s25_1
*CAP
1 a[2] 0.000527638
2 *464:A 0.000527638
3 *464:A result[2] 0.000222632
4 *464:A *454:A 1.11993e-05
5 *464:A *146:10 3.69047e-06
*RES
1 a[2] *464:A 25.4607 
*END

*D_NET *6 0.00274342
*CONN
*P a[3] I
*I *465:A I *D sky130_fd_sc_hd__clkdlybuf4s25_1
*CAP
1 a[3] 0.000625693
2 *465:A 0.000625693
3 *465:A result[3] 0.000431066
4 *465:A *421:B1 6.28677e-05
5 *465:A *422:C1 0.000173622
6 *465:A *455:A 0.000824475
7 *465:A *456:A 0
*RES
1 a[3] *465:A 22.1326 
*END

*D_NET *7 0.00206082
*CONN
*P a[4] I
*I *466:A I *D sky130_fd_sc_hd__clkdlybuf4s25_1
*CAP
1 a[4] 0.000391987
2 *466:A 0.000391987
3 *466:A result[4] 0.000416013
4 *466:A result[5] 6.26315e-05
5 *466:A *456:A 0.000562606
6 *466:A *103:56 0.000235597
*RES
1 a[4] *466:A 21.8749 
*END

*D_NET *8 0.00127478
*CONN
*P a[5] I
*I *467:A I *D sky130_fd_sc_hd__clkdlybuf4s25_1
*CAP
1 a[5] 0.000495766
2 *467:A 0.000495766
3 *467:A result[5] 0.000217428
4 *467:A *365:B 6.58195e-05
5 *467:A *103:50 0
*RES
1 a[5] *467:A 23.1919 
*END

*D_NET *9 0.00162445
*CONN
*P a[6] I
*I *468:A I *D sky130_fd_sc_hd__clkdlybuf4s25_1
*CAP
1 a[6] 0.000669095
2 *468:A 0.000669095
3 *468:A result[6] 0.000154329
4 *468:A *451:A 7.77652e-05
5 *468:A *160:10 5.41609e-05
*RES
1 a[6] *468:A 28.4161 
*END

*D_NET *10 0.00138375
*CONN
*P a[7] I
*I *469:A I *D sky130_fd_sc_hd__clkdlybuf4s25_1
*CAP
1 a[7] 0.000205482
2 *469:A 0.000205482
3 *469:A *459:A 0.000409159
4 *469:A *461:A 0.000563631
*RES
1 a[7] *469:A 20.4017 
*END

*D_NET *11 0.00140396
*CONN
*P b[0] I
*I *470:A I *D sky130_fd_sc_hd__clkdlybuf4s25_1
*CAP
1 b[0] 0.000562424
2 *470:A 0.000562424
3 *470:A result[1] 4.01768e-05
4 *470:A *462:A 8.24859e-05
5 *452:A *470:A 0.000156446
*RES
1 b[0] *470:A 27.9298 
*END

*D_NET *12 0.00103093
*CONN
*P b[1] I
*I *453:A I *D sky130_fd_sc_hd__clkdlybuf4s25_1
*CAP
1 b[1] 0.000476116
2 *453:A 0.000476116
3 *463:A *453:A 7.86968e-05
*RES
1 b[1] *453:A 25.5363 
*END

*D_NET *13 0.00137503
*CONN
*P b[2] I
*I *454:A I *D sky130_fd_sc_hd__clkdlybuf4s25_1
*CAP
1 b[2] 0.000681916
2 *454:A 0.000681916
3 *464:A *454:A 1.11993e-05
*RES
1 b[2] *454:A 27.55 
*END

*D_NET *14 0.00228658
*CONN
*P b[3] I
*I *455:A I *D sky130_fd_sc_hd__clkdlybuf4s25_1
*CAP
1 b[3] 0.0007142
2 *455:A 0.0007142
3 *455:A *422:B2 3.37e-05
4 *455:A *92:14 0
5 *465:A *455:A 0.000824475
*RES
1 b[3] *455:A 20.4706 
*END

*D_NET *15 0.00203351
*CONN
*P b[4] I
*I *456:A I *D sky130_fd_sc_hd__clkdlybuf4s25_1
*CAP
1 b[4] 0.000645548
2 *456:A 0.000645548
3 *456:A result[3] 0
4 *456:A *428:A2 9.06562e-05
5 *456:A *448:B1 8.91561e-05
6 *465:A *456:A 0
7 *466:A *456:A 0.000562606
*RES
1 b[4] *456:A 20.4859 
*END

*D_NET *16 0.00116371
*CONN
*P b[5] I
*I *457:A I *D sky130_fd_sc_hd__clkdlybuf4s25_1
*CAP
1 b[5] 0.000570485
2 *457:A 0.000570485
3 *457:A *129:10 2.27416e-05
*RES
1 b[5] *457:A 25.1304 
*END

*D_NET *17 0.00117086
*CONN
*P b[6] I
*I *458:A I *D sky130_fd_sc_hd__clkdlybuf4s25_1
*CAP
1 b[6] 0.000569495
2 *458:A 0.000569495
3 *458:A result[6] 0
4 *458:A *451:A 3.18676e-05
*RES
1 b[6] *458:A 25.1304 
*END

*D_NET *18 0.00359095
*CONN
*P b[7] I
*I *459:A I *D sky130_fd_sc_hd__clkdlybuf4s25_1
*CAP
1 b[7] 0.00098683
2 *459:A 0.00098683
3 *459:A *385:B 1.99644e-05
4 *459:A *390:A1 0
5 *459:A *397:C 0
6 *459:A *398:A 0.000150618
7 *459:A *398:C 8.00806e-05
8 *459:A *398:D_N 0
9 *459:A *399:A 6.65398e-05
10 *459:A *402:A 0.000556852
11 *459:A *402:B 9.25171e-06
12 *459:A *407:B1 8.00518e-05
13 *459:A *461:A 1.10568e-05
14 *459:A *109:12 0
15 *459:A *161:8 5.74289e-05
16 *459:A *161:16 0.000137237
17 *459:A *161:27 3.90513e-05
18 *469:A *459:A 0.000409159
*RES
1 b[7] *459:A 32.8896 
*END

*D_NET *19 0.00212334
*CONN
*P opcode[0] I
*I *460:A I *D sky130_fd_sc_hd__clkbuf_2
*CAP
1 opcode[0] 0.000697093
2 *460:A 0.000697093
3 *460:A zero 0
4 *460:A *407:A2 0.000143819
5 *460:A *407:A3 8.74791e-05
6 *460:A *407:B1 5.66971e-05
7 *460:A *462:A 0
8 *460:A *134:8 0.000267143
9 *460:A *137:12 9.86486e-06
10 *460:A *148:26 0
11 *460:A *151:14 0
12 *452:A *460:A 0.000164154
*RES
1 opcode[0] *460:A 28.7736 
*END

*D_NET *20 0.00173631
*CONN
*P opcode[1] I
*I *461:A I *D sky130_fd_sc_hd__buf_6
*CAP
1 opcode[1] 0.000458701
2 *461:A 0.000458701
3 *461:A overflow 0
4 *461:A *148:10 0.00024422
5 *459:A *461:A 1.10568e-05
6 *469:A *461:A 0.000563631
*RES
1 opcode[1] *461:A 24.4202 
*END

*D_NET *21 0.00244535
*CONN
*P opcode[2] I
*I *462:A I *D sky130_fd_sc_hd__clkbuf_2
*CAP
1 opcode[2] 0.000935069
2 *462:A 0.000935069
3 *462:A result[0] 0.000315369
4 *462:A result[1] 7.61623e-06
5 *462:A *372:B 0
6 *462:A *405:B 4.76333e-05
7 *462:A *407:A3 4.25594e-05
8 *462:A *105:43 4.25594e-05
9 *452:A *462:A 3.6994e-05
10 *460:A *462:A 0
11 *470:A *462:A 8.24859e-05
*RES
1 opcode[2] *462:A 20.109 
*END

*D_NET *22 0.00144172
*CONN
*P overflow O
*I *472:X O *D sky130_fd_sc_hd__buf_8
*CAP
1 overflow 0.000446405
2 *472:X 0.000446405
3 overflow result[7] 0.0002186
4 overflow *148:26 0.000165157
5 overflow *151:12 0.000165157
6 *461:A overflow 0
*RES
1 *472:X overflow 20.69 
*END

*D_NET *23 0.001641
*CONN
*P result[0] O
*I *473:X O *D sky130_fd_sc_hd__clkdlybuf4s25_1
*CAP
1 result[0] 0.000388075
2 *473:X 0.000388075
3 result[0] result[1] 0.000317921
4 result[0] *124:10 5.50052e-05
5 result[0] *151:33 3.29246e-05
6 *452:A result[0] 0.000143633
7 *462:A result[0] 0.000315369
*RES
1 *473:X result[0] 23.007 
*END

*D_NET *24 0.00172713
*CONN
*P result[1] O
*I *474:X O *D sky130_fd_sc_hd__clkdlybuf4s25_1
*CAP
1 result[1] 0.000653093
2 *474:X 0.000653093
3 result[1] *410:C1 0
4 result[1] *162:6 5.52302e-05
5 result[0] result[1] 0.000317921
6 *462:A result[1] 7.61623e-06
7 *463:A result[1] 0
8 *470:A result[1] 4.01768e-05
*RES
1 *474:X result[1] 23.2755 
*END

*D_NET *25 0.00194572
*CONN
*P result[2] O
*I *475:X O *D sky130_fd_sc_hd__clkdlybuf4s25_1
*CAP
1 result[2] 0.000787088
2 *475:X 0.000787088
3 result[2] *88:14 0.000148911
4 *464:A result[2] 0.000222632
*RES
1 *475:X result[2] 39.3 
*END

*D_NET *26 0.00140502
*CONN
*P result[3] O
*I *476:X O *D sky130_fd_sc_hd__clkdlybuf4s25_1
*CAP
1 result[3] 0.000486975
2 *476:X 0.000486975
3 result[3] *366:A 0
4 result[3] *366:B 0
5 *456:A result[3] 0
6 *465:A result[3] 0.000431066
*RES
1 *476:X result[3] 22.2811 
*END

*D_NET *27 0.00179128
*CONN
*P result[4] O
*I *477:X O *D sky130_fd_sc_hd__clkdlybuf4s25_1
*CAP
1 result[4] 0.000483226
2 *477:X 0.000483226
3 result[4] result[5] 0.000408814
4 *466:A result[4] 0.000416013
*RES
1 *477:X result[4] 24.1026 
*END

*D_NET *28 0.00250298
*CONN
*P result[5] O
*I *478:X O *D sky130_fd_sc_hd__dlymetal6s2s_1
*CAP
1 result[5] 0.000606077
2 *478:X 0.000606077
3 result[5] *365:A 0.000306311
4 result[5] *365:B 2.8266e-06
5 result[5] *427:B2 0.000103253
6 result[5] *432:A3 5.33334e-05
7 result[5] *103:50 3.34783e-05
8 result[5] *103:56 0.000102748
9 result[4] result[5] 0.000408814
10 *466:A result[5] 6.26315e-05
11 *467:A result[5] 0.000217428
*RES
1 *478:X result[5] 26.3207 
*END

*D_NET *29 0.00130383
*CONN
*P result[6] O
*I *479:X O *D sky130_fd_sc_hd__dlymetal6s2s_1
*CAP
1 result[6] 0.000547487
2 *479:X 0.000547487
3 result[6] *451:A 5.45307e-05
4 *458:A result[6] 0
5 *468:A result[6] 0.000154329
*RES
1 *479:X result[6] 26.2018 
*END

*D_NET *30 0.0010716
*CONN
*P result[7] O
*I *480:X O *D sky130_fd_sc_hd__buf_6
*CAP
1 result[7] 0.000306442
2 *480:X 0.000306442
3 result[7] zero 0.000240118
4 result[7] *472:A 0
5 overflow result[7] 0.0002186
*RES
1 *480:X result[7] 21.7901 
*END

*D_NET *31 0.00093078
*CONN
*P zero O
*I *481:X O *D sky130_fd_sc_hd__buf_6
*CAP
1 zero 0.000345331
2 *481:X 0.000345331
3 result[7] zero 0.000240118
4 *460:A zero 0
*RES
1 *481:X zero 21.4866 
*END

*D_NET *32 0.000970666
*CONN
*I *419:A2 I *D sky130_fd_sc_hd__a21oi_2
*I *420:C I *D sky130_fd_sc_hd__or3_2
*I *418:Y O *D sky130_fd_sc_hd__a21oi_2
*CAP
1 *419:A2 0.000154584
2 *420:C 4.63321e-05
3 *418:Y 0.000170502
4 *32:10 0.000371418
5 *419:A2 *420:A 2.8266e-06
6 *419:A2 *63:12 0
7 *419:A2 *92:14 0
8 *420:C *420:B 3.67257e-05
9 *32:10 *420:A 4.35048e-05
10 *32:10 *423:B1 0.000144773
11 *32:10 *63:12 0
*RES
1 *418:Y *32:10 16.8 
2 *32:10 *420:C 14.7464 
3 *32:10 *419:A2 16.3536 
*END

*D_NET *33 0.000938317
*CONN
*I *422:B1 I *D sky130_fd_sc_hd__o221a_2
*I *419:Y O *D sky130_fd_sc_hd__a21oi_2
*CAP
1 *422:B1 0.000161831
2 *419:Y 0.000161831
3 *422:B1 *422:A2 1.19813e-05
4 *422:B1 *103:56 0.000171944
5 *422:B1 *103:64 1.16543e-05
6 *422:B1 *157:6 0.000419075
*RES
1 *419:Y *422:B1 24.1223 
*END

*D_NET *34 0.00142496
*CONN
*I *423:A2_N I *D sky130_fd_sc_hd__o2bb2a_2
*I *420:X O *D sky130_fd_sc_hd__or3_2
*CAP
1 *423:A2_N 0.000510087
2 *420:X 0.000510087
3 *423:A2_N *349:A 0.000105163
4 *423:A2_N *378:A2 1.21289e-05
5 *423:A2_N *420:A 2.79092e-05
6 *423:A2_N *423:B1 2.77143e-05
7 *423:A2_N *448:B1 2.51343e-06
8 *423:A2_N *60:6 0.000102207
9 *423:A2_N *92:14 7.83659e-05
10 *423:A2_N *157:16 4.87854e-05
*RES
1 *420:X *423:A2_N 34.9214 
*END

*D_NET *35 0.000627736
*CONN
*I *422:C1 I *D sky130_fd_sc_hd__o221a_2
*I *421:Y O *D sky130_fd_sc_hd__a31oi_2
*CAP
1 *422:C1 0.000146714
2 *421:Y 0.000146714
3 *422:C1 *421:B1 0.00010096
4 *422:C1 *422:B2 4.57526e-05
5 *422:C1 *127:6 1.39726e-05
6 *465:A *422:C1 0.000173622
*RES
1 *421:Y *422:C1 31.2071 
*END

*D_NET *36 0.000877699
*CONN
*I *423:A1_N I *D sky130_fd_sc_hd__o2bb2a_2
*I *422:X O *D sky130_fd_sc_hd__o221a_2
*CAP
1 *423:A1_N 0.000122946
2 *422:X 0.000122946
3 *423:A1_N *366:B 0.000309777
4 *423:A1_N *448:B1 0.000322029
*RES
1 *422:X *423:A1_N 31.9304 
*END

*D_NET *37 0.000743394
*CONN
*I *425:B I *D sky130_fd_sc_hd__nor2_2
*I *424:Y O *D sky130_fd_sc_hd__o21ai_2
*CAP
1 *425:B 0.000202325
2 *424:Y 0.000202325
3 *425:B *421:B1 5.54817e-06
4 *425:B *425:A 0.000168299
5 *425:B *62:45 3.50522e-05
6 *425:B *62:67 0.000129845
*RES
1 *424:Y *425:B 32.2786 
*END

*D_NET *38 0.00160452
*CONN
*I *428:A1 I *D sky130_fd_sc_hd__o32a_2
*I *425:Y O *D sky130_fd_sc_hd__nor2_2
*CAP
1 *428:A1 0.000374577
2 *425:Y 0.000374577
3 *428:A1 *422:A2 9.41642e-05
4 *428:A1 *428:B1 0.000140243
5 *428:A1 *478:A 2.24804e-05
6 *428:A1 *62:43 5.49995e-05
7 *428:A1 *62:45 3.14003e-05
8 *428:A1 *62:67 0.000286353
9 *428:A1 *149:18 9.61282e-05
10 *428:A1 *149:26 9.75679e-05
11 *428:A1 *158:34 3.2033e-05
*RES
1 *425:Y *428:A1 36.4571 
*END

*D_NET *39 0.000920132
*CONN
*I *428:A2 I *D sky130_fd_sc_hd__o32a_2
*I *426:X O *D sky130_fd_sc_hd__a31o_2
*CAP
1 *428:A2 0.000170192
2 *426:X 0.000170192
3 *428:A2 *421:A1 5.50052e-05
4 *428:A2 *422:A2 0.000337598
5 *428:A2 *448:B1 5.06378e-05
6 *428:A2 *141:8 2.20569e-05
7 *428:A2 *158:21 2.37944e-05
8 *456:A *428:A2 9.06562e-05
*RES
1 *426:X *428:A2 32.5107 
*END

*D_NET *40 0.000489935
*CONN
*I *428:A3 I *D sky130_fd_sc_hd__o32a_2
*I *427:X O *D sky130_fd_sc_hd__a2bb2o_2
*CAP
1 *428:A3 0.00013738
2 *427:X 0.00013738
3 *428:A3 *422:A2 1.27916e-05
4 *428:A3 *427:A1_N 1.92905e-05
5 *428:A3 *431:B1 8.25843e-06
6 *428:A3 *478:A 6.30388e-05
7 *428:A3 *158:21 1.02504e-05
8 *428:A3 *158:34 0.000101545
*RES
1 *427:X *428:A3 30.1893 
*END

*D_NET *41 0.00141054
*CONN
*I *436:A I *D sky130_fd_sc_hd__and2_2
*I *448:A1 I *D sky130_fd_sc_hd__a2111o_2
*I *429:X O *D sky130_fd_sc_hd__or2_2
*CAP
1 *436:A 0
2 *448:A1 0.000369151
3 *429:X 1.68118e-05
4 *41:6 0.000385962
5 *448:A1 *362:B 0.000264539
6 *448:A1 *448:A2 0.000165491
7 *448:A1 *448:D1 1.16543e-05
8 *41:6 *428:B1 9.84673e-05
9 *41:6 *429:A 9.84673e-05
*RES
1 *429:X *41:6 10.2464 
2 *41:6 *448:A1 23.7643 
3 *41:6 *436:A 9.3 
*END

*D_NET *42 0.00325182
*CONN
*I *433:B1 I *D sky130_fd_sc_hd__a2bb2o_2
*I *432:A3 I *D sky130_fd_sc_hd__o31a_2
*I *431:B1 I *D sky130_fd_sc_hd__o21ai_2
*I *430:Y O *D sky130_fd_sc_hd__nor2_2
*CAP
1 *433:B1 8.68892e-05
2 *432:A3 0.000198693
3 *431:B1 0.000286613
4 *430:Y 6.94743e-05
5 *42:14 0.000780308
6 *42:8 0.000451365
7 *431:B1 *422:A2 8.71761e-06
8 *431:B1 *427:A1_N 0.00012095
9 *431:B1 *73:14 0.000170654
10 *431:B1 *76:16 2.79421e-05
11 *431:B1 *158:47 5.94737e-05
12 *432:A3 *365:A 4.83016e-05
13 *432:A3 *432:B1 5.52302e-05
14 *432:A3 *478:A 2.59355e-05
15 *433:B1 *433:A2_N 5.33005e-05
16 *433:B1 *103:48 8.25843e-06
17 *42:8 *430:B 6.39901e-05
18 *42:14 *430:B 9.14786e-05
19 *42:14 *433:A2_N 0.000214342
20 *42:14 *73:14 0.000128161
21 *42:14 *105:114 0.000189428
22 *42:14 *149:18 0
23 *42:14 *158:47 5.0725e-05
24 *42:14 *159:10 0
25 *42:14 *159:21 0
26 result[5] *432:A3 5.33334e-05
27 *428:A3 *431:B1 8.25843e-06
*RES
1 *430:Y *42:8 15.4429 
2 *42:8 *42:14 8.07143 
3 *42:14 *431:B1 19.4786 
4 *42:14 *432:A3 17.2107 
5 *42:8 *433:B1 15.1571 
*END

*D_NET *43 0.00404969
*CONN
*I *441:B I *D sky130_fd_sc_hd__nand3_2
*I *435:A1 I *D sky130_fd_sc_hd__a21o_2
*I *440:A2 I *D sky130_fd_sc_hd__a21o_2
*I *431:Y O *D sky130_fd_sc_hd__o21ai_2
*CAP
1 *441:B 0.000337566
2 *435:A1 0.000607408
3 *440:A2 0.000507047
4 *431:Y 0
5 *43:4 0.000776889
6 *435:A1 *365:A 0.000135028
7 *435:A1 *432:A2 0.000101545
8 *435:A1 *432:B1 0.000150189
9 *435:A1 *149:18 0.000101545
10 *440:A2 *382:A 1.92789e-05
11 *440:A2 *382:B 5.33005e-05
12 *440:A2 *432:A2 9.41642e-05
13 *440:A2 *449:C1 0.000187872
14 *440:A2 *76:16 3.98547e-05
15 *440:A2 *93:22 0.000181796
16 *441:B *361:A 0.000320024
17 *441:B *432:B1 3.51668e-05
18 *441:B *435:B1 5.33005e-05
19 *441:B *440:A1 9.41642e-05
20 *441:B *441:C 5.77001e-05
21 *441:B *445:A1 3.08463e-05
22 *441:B *63:78 6.59657e-05
23 *441:B *72:6 9.90431e-05
*RES
1 *431:Y *43:4 9.3 
2 *43:4 *440:A2 18.05 
3 *43:4 *435:A1 22.6393 
4 *435:A1 *441:B 26.6893 
*END

*D_NET *44 0.000102572
*CONN
*I *435:A2 I *D sky130_fd_sc_hd__a21o_2
*I *432:X O *D sky130_fd_sc_hd__o31a_2
*CAP
1 *435:A2 2.3671e-05
2 *432:X 2.3671e-05
3 *435:A2 *432:B1 5.52302e-05
*RES
1 *432:X *435:A2 19.1357 
*END

*D_NET *45 0.000262306
*CONN
*I *434:C1 I *D sky130_fd_sc_hd__a311o_2
*I *433:X O *D sky130_fd_sc_hd__a2bb2o_2
*CAP
1 *434:C1 5.80659e-05
2 *433:X 5.80659e-05
3 *434:C1 *433:A1_N 1.04232e-05
4 *434:C1 *434:B1 0
5 *434:C1 *103:48 3.67142e-05
6 *434:C1 *159:23 9.90367e-05
*RES
1 *433:X *434:C1 20.2786 
*END

*D_NET *46 0.00176064
*CONN
*I *435:B1 I *D sky130_fd_sc_hd__a21o_2
*I *434:X O *D sky130_fd_sc_hd__a311o_2
*CAP
1 *435:B1 0.000342325
2 *434:X 0.000342325
3 *435:B1 *358:A_N 0
4 *435:B1 *358:B 6.73591e-05
5 *435:B1 *359:B1_N 0
6 *435:B1 *361:A 0.000197984
7 *435:B1 *383:A1 0.000197984
8 *435:B1 *383:B1 0
9 *435:B1 *429:A 0.000150217
10 *435:B1 *432:B1 3.481e-05
11 *435:B1 *434:A3 5.52238e-05
12 *435:B1 *445:A1 6.05161e-06
13 *435:B1 *71:10 9.67001e-05
14 *435:B1 *103:48 0.000140933
15 *435:B1 *159:31 7.5425e-05
16 *441:B *435:B1 5.33005e-05
*RES
1 *434:X *435:B1 37.5643 
*END

*D_NET *47 0.00221967
*CONN
*I *436:B I *D sky130_fd_sc_hd__and2_2
*I *448:A2 I *D sky130_fd_sc_hd__a2111o_2
*I *435:X O *D sky130_fd_sc_hd__a21o_2
*CAP
1 *436:B 0
2 *448:A2 0.000177265
3 *435:X 0.000249977
4 *47:10 0.000427242
5 *448:A2 *362:B 0.000308001
6 *448:A2 *448:B1 0.000137639
7 *448:A2 *448:C1 1.98839e-05
8 *448:A2 *448:D1 0.000102659
9 *448:A2 *449:C1 0.000145662
10 *47:10 *361:A 0.000142856
11 *47:10 *445:A1 0.000142856
12 *47:10 *449:C1 0.000200137
13 *47:10 *99:38 0
14 *47:10 *105:74 0
15 *448:A1 *448:A2 0.000165491
*RES
1 *435:X *47:10 19.8357 
2 *47:10 *448:A2 19.8714 
3 *47:10 *436:B 13.8 
*END

*D_NET *48 0.00121154
*CONN
*I *446:A I *D sky130_fd_sc_hd__and2_2
*I *449:A1 I *D sky130_fd_sc_hd__a211oi_2
*I *437:Y O *D sky130_fd_sc_hd__nand2_2
*CAP
1 *446:A 0.000128542
2 *449:A1 0.000113626
3 *437:Y 0
4 *48:4 0.000242168
5 *446:A *437:A 0.000255218
6 *446:A *446:B 0.000173083
7 *446:A *449:A2 0.000197045
8 *449:A1 *449:C1 0.000101859
*RES
1 *437:Y *48:4 9.3 
2 *48:4 *449:A1 11.4964 
3 *48:4 *446:A 22.9786 
*END

*D_NET *49 0.00199176
*CONN
*I *439:A I *D sky130_fd_sc_hd__inv_2
*I *444:A2 I *D sky130_fd_sc_hd__a211o_2
*I *438:Y O *D sky130_fd_sc_hd__xnor2_2
*CAP
1 *439:A 0.000272174
2 *444:A2 0.000179212
3 *438:Y 3.10251e-05
4 *49:6 0.000482411
5 *439:A *348:A 0
6 *439:A *395:A2_N 0.000162572
7 *439:A *437:B 1.19309e-05
8 *439:A *443:A 0.000335208
9 *439:A *444:C1 3.48235e-05
10 *439:A *62:71 9.90367e-05
11 *439:A *94:16 3.69697e-05
12 *439:A *105:74 7.37102e-05
13 *444:A2 *443:A 0.000123288
14 *444:A2 *160:23 4.08637e-05
15 *444:A2 *160:25 5.33005e-05
16 *49:6 *160:23 5.52302e-05
*RES
1 *438:Y *49:6 9.83571 
2 *49:6 *444:A2 20.8893 
3 *49:6 *439:A 25.7464 
*END

*D_NET *50 0.00113928
*CONN
*I *441:C I *D sky130_fd_sc_hd__nand3_2
*I *440:B1 I *D sky130_fd_sc_hd__a21o_2
*I *439:Y O *D sky130_fd_sc_hd__inv_2
*CAP
1 *441:C 5.93609e-05
2 *440:B1 8.36652e-05
3 *439:Y 9.25198e-05
4 *50:8 0.000235546
5 *440:B1 *437:B 7.6021e-05
6 *440:B1 *440:A1 0.000100823
7 *440:B1 *449:C1 5.71472e-05
8 *440:B1 *63:78 2.59093e-05
9 *441:C *445:A1 0.000139632
10 *441:C *445:A3 2.84026e-05
11 *441:C *63:78 7.49387e-06
12 *50:8 *437:B 8.47203e-05
13 *50:8 *440:A1 3.17148e-05
14 *50:8 *63:78 3.57844e-05
15 *50:8 *105:74 2.28428e-05
16 *441:B *441:C 5.77001e-05
*RES
1 *439:Y *50:8 16.05 
2 *50:8 *440:B1 16.2821 
3 *50:8 *441:C 15.5857 
*END

*D_NET *51 0.00061685
*CONN
*I *445:A2 I *D sky130_fd_sc_hd__a31o_2
*I *440:X O *D sky130_fd_sc_hd__a21o_2
*CAP
1 *445:A2 0.000160586
2 *440:X 0.000160586
3 *445:A2 *437:A 0.000104974
4 *445:A2 *437:B 0.000143375
5 *445:A2 *449:C1 4.73286e-05
*RES
1 *440:X *445:A2 31.1179 
*END

*D_NET *52 0.00055031
*CONN
*I *445:A3 I *D sky130_fd_sc_hd__a31o_2
*I *441:Y O *D sky130_fd_sc_hd__nand3_2
*CAP
1 *445:A3 0.000127941
2 *441:Y 0.000127941
3 *445:A3 *445:A1 4.05878e-05
4 *445:A3 *445:B1 5.65955e-05
5 *445:A3 *446:B 1.32056e-05
6 *445:A3 *63:78 0.000155637
7 *441:C *445:A3 2.84026e-05
*RES
1 *441:Y *445:A3 22.0286 
*END

*D_NET *53 0.00158166
*CONN
*I *444:B1 I *D sky130_fd_sc_hd__a211o_2
*I *442:X O *D sky130_fd_sc_hd__a31o_2
*CAP
1 *444:B1 0.00046539
2 *442:X 0.00046539
3 *444:B1 *438:B 4.63699e-05
4 *444:B1 *444:A1 5.7661e-06
5 *444:B1 *103:29 0.000450823
6 *444:B1 *103:48 4.87953e-05
7 *444:B1 *150:33 9.91224e-05
*RES
1 *442:X *444:B1 35.3857 
*END

*D_NET *54 0.000340596
*CONN
*I *444:C1 I *D sky130_fd_sc_hd__a211o_2
*I *443:Y O *D sky130_fd_sc_hd__nor2_2
*CAP
1 *444:C1 9.91936e-05
2 *443:Y 9.91936e-05
3 *444:C1 *348:A 4.1331e-06
4 *444:C1 *358:A_N 0
5 *444:C1 *395:A2_N 0.000103253
6 *439:A *444:C1 3.48235e-05
*RES
1 *443:Y *444:C1 29.85 
*END

*D_NET *55 0.00137406
*CONN
*I *445:B1 I *D sky130_fd_sc_hd__a31o_2
*I *444:X O *D sky130_fd_sc_hd__a211o_2
*CAP
1 *445:B1 0.000379419
2 *444:X 0.000379419
3 *445:B1 *355:B 0.000191969
4 *445:B1 *437:B 0.000242806
5 *445:B1 *443:A 5.77676e-05
6 *445:B1 *445:A1 2.976e-05
7 *445:B1 *446:B 0
8 *445:B1 *94:16 3.63281e-05
9 *445:A3 *445:B1 5.65955e-05
*RES
1 *444:X *445:B1 36.0821 
*END

*D_NET *56 0.00108193
*CONN
*I *446:B I *D sky130_fd_sc_hd__and2_2
*I *449:A2 I *D sky130_fd_sc_hd__a211oi_2
*I *445:X O *D sky130_fd_sc_hd__a31o_2
*CAP
1 *446:B 0.000119871
2 *449:A2 0.000126725
3 *445:X 0
4 *56:4 0.000246597
5 *446:B *437:A 9.91086e-05
6 *446:B *63:78 9.41642e-05
7 *449:A2 *437:A 1.21309e-05
8 *449:A2 *131:10 0
9 *445:A3 *446:B 1.32056e-05
10 *445:B1 *446:B 0
11 *446:A *446:B 0.000173083
12 *446:A *449:A2 0.000197045
*RES
1 *445:X *56:4 9.3 
2 *56:4 *449:A2 21.1571 
3 *56:4 *446:B 21.4964 
*END

*D_NET *57 0.00256206
*CONN
*I *448:D1 I *D sky130_fd_sc_hd__a2111o_2
*I *447:X O *D sky130_fd_sc_hd__or3_2
*CAP
1 *448:D1 0.000780963
2 *447:X 0.000780963
3 *448:D1 *351:B 0.000308602
4 *448:D1 *64:8 0.000147784
5 *448:D1 *100:16 0.000109271
6 *448:D1 *105:74 0.000151699
7 *448:D1 *134:68 0.000168469
8 *448:A1 *448:D1 1.16543e-05
9 *448:A2 *448:D1 0.000102659
*RES
1 *447:X *448:D1 43.1179 
*END

*D_NET *58 0.00273169
*CONN
*I *449:C1 I *D sky130_fd_sc_hd__a211oi_2
*I *448:X O *D sky130_fd_sc_hd__a2111o_2
*CAP
1 *449:C1 0.000773986
2 *448:X 0.000773986
3 *449:C1 *362:B 9.96487e-05
4 *449:C1 *424:A1 6.09369e-05
5 *449:C1 *437:B 0.000187042
6 *449:C1 *449:B1 9.60875e-05
7 *449:C1 *99:38 0
8 *440:A2 *449:C1 0.000187872
9 *440:B1 *449:C1 5.71472e-05
10 *445:A2 *449:C1 4.73286e-05
11 *448:A2 *449:C1 0.000145662
12 *449:A1 *449:C1 0.000101859
13 *47:10 *449:C1 0.000200137
*RES
1 *448:X *449:C1 44.4214 
*END

*D_NET *59 0.00357588
*CONN
*I *355:A I *D sky130_fd_sc_hd__nor2_2
*I *437:A I *D sky130_fd_sc_hd__nand2_2
*I *359:A1 I *D sky130_fd_sc_hd__a21boi_2
*I *348:Y O *D sky130_fd_sc_hd__inv_2
*CAP
1 *355:A 0
2 *437:A 0.000502943
3 *359:A1 2.16528e-05
4 *348:Y 0.00022388
5 *59:14 0.000599697
6 *59:12 0.000298981
7 *359:A1 *359:A2 9.83388e-05
8 *359:A1 *94:16 5.20669e-05
9 *437:A *384:B 0
10 *437:A *437:B 0
11 *437:A *479:A 3.5848e-05
12 *437:A *62:73 2.72887e-05
13 *59:12 *355:B 0.000221634
14 *59:12 *395:A2_N 0.000304387
15 *59:12 *479:A 5.2781e-05
16 *59:12 *103:29 0.000121456
17 *59:12 *103:48 0.000212153
18 *59:14 *359:A2 9.83442e-05
19 *59:14 *359:B1_N 9.83388e-05
20 *59:14 *94:16 0.000134662
21 *445:A2 *437:A 0.000104974
22 *446:A *437:A 0.000255218
23 *446:B *437:A 9.91086e-05
24 *449:A2 *437:A 1.21309e-05
*RES
1 *348:Y *59:12 24.7821 
2 *59:12 *59:14 2.58929 
3 *59:14 *359:A1 10.2464 
4 *59:14 *437:A 36.55 
5 *59:12 *355:A 9.3 
*END

*D_NET *60 0.00163106
*CONN
*I *378:A1 I *D sky130_fd_sc_hd__a21oi_2
*I *379:A I *D sky130_fd_sc_hd__xnor2_2
*I *369:A1 I *D sky130_fd_sc_hd__o22a_2
*I *349:Y O *D sky130_fd_sc_hd__inv_2
*CAP
1 *378:A1 0
2 *379:A 0.000166802
3 *369:A1 0.000121402
4 *349:Y 3.24129e-05
5 *60:10 0.000434568
6 *60:6 0.000178777
7 *369:A1 *378:B1 0
8 *369:A1 *420:A 0
9 *369:A1 *77:17 0
10 *369:A1 *82:14 0
11 *379:A *380:A 0.000136299
12 *379:A *91:6 9.90431e-05
13 *60:6 *378:A2 0.00010096
14 *60:6 *423:B1 7.22263e-05
15 *60:10 *378:A2 0
16 *60:10 *381:B1 1.08359e-05
17 *60:10 *420:A 0
18 *60:10 *77:17 0
19 *60:10 *92:14 0.000175526
20 *423:A2_N *60:6 0.000102207
*RES
1 *349:Y *60:6 11.0679 
2 *60:6 *60:10 7.66071 
3 *60:10 *369:A1 15.7464 
4 *60:10 *379:A 17.2286 
5 *60:6 *378:A1 9.3 
*END

*D_NET *61 0.00252751
*CONN
*I *369:B2 I *D sky130_fd_sc_hd__o22a_2
*I *370:A I *D sky130_fd_sc_hd__and2_2
*I *368:A I *D sky130_fd_sc_hd__nor2_2
*I *350:Y O *D sky130_fd_sc_hd__inv_2
*CAP
1 *369:B2 0.000214865
2 *370:A 0
3 *368:A 0.000213155
4 *350:Y 0.000298971
5 *61:27 0.000214865
6 *61:10 0.000512125
7 *368:A *368:B 2.91699e-05
8 *368:A *415:A3 1.76135e-05
9 *368:A *88:14 0
10 *368:A *126:10 9.94443e-05
11 *369:B2 *369:B1 0.000343591
12 *369:B2 *371:B 9.3111e-05
13 *369:B2 *78:6 9.90431e-05
14 *369:B2 *78:13 4.18895e-05
15 *61:10 *368:B 9.69119e-06
16 *61:10 *411:B1 5.71472e-05
17 *61:10 *415:A3 0.000103993
18 *61:10 *415:B1 0
19 *61:10 *417:B1 3.61629e-06
20 *61:10 *418:A1 1.04707e-05
21 *61:10 *418:A2 2.89016e-05
22 *61:10 *418:B1 0
23 *61:10 *82:27 0.000135841
*RES
1 *350:Y *61:10 19.5321 
2 *61:10 *368:A 17.9607 
3 *61:10 *61:27 4.5 
4 *61:27 *370:A 9.3 
5 *61:27 *369:B2 14.7821 
*END

*D_NET *62 0.0157972
*CONN
*I *434:B1 I *D sky130_fd_sc_hd__a311o_2
*I *437:B I *D sky130_fd_sc_hd__nand2_2
*I *393:B1 I *D sky130_fd_sc_hd__a31o_2
*I *442:B1 I *D sky130_fd_sc_hd__a31o_2
*I *426:B1 I *D sky130_fd_sc_hd__a31o_2
*I *421:B1 I *D sky130_fd_sc_hd__a31oi_2
*I *415:B1 I *D sky130_fd_sc_hd__a31o_2
*I *406:B1 I *D sky130_fd_sc_hd__a31o_2
*I *351:X O *D sky130_fd_sc_hd__and2_2
*CAP
1 *434:B1 0.000240834
2 *437:B 0.000242622
3 *393:B1 0
4 *442:B1 0.000468766
5 *426:B1 2.50801e-05
6 *421:B1 0.000344296
7 *415:B1 0.000445779
8 *406:B1 0.000687113
9 *351:X 0.000694587
10 *62:73 0.000746549
11 *62:71 0.000930898
12 *62:67 0.00113639
13 *62:45 0.000412547
14 *62:43 0.00103146
15 *62:6 0.00132426
16 *406:B1 *351:B 6.05161e-06
17 *406:B1 *353:C_N 7.8195e-05
18 *406:B1 *376:B1 0.000121897
19 *406:B1 *387:A 2.85321e-05
20 *406:B1 *447:A 0.000139344
21 *406:B1 *447:C 9.15842e-06
22 *406:B1 *100:16 9.58632e-05
23 *406:B1 *132:30 3.951e-05
24 *406:B1 *134:75 7.06918e-05
25 *406:B1 *148:26 5.40961e-05
26 *406:B1 *151:63 9.71574e-05
27 *415:B1 *350:A 1.90936e-05
28 *415:B1 *367:B 0.000344244
29 *415:B1 *376:A2 0.000223058
30 *415:B1 *411:B1 2.84729e-05
31 *415:B1 *415:A3 0.00019789
32 *415:B1 *420:B 0.000126272
33 *415:B1 *103:64 0.000110182
34 *415:B1 *134:83 3.75868e-05
35 *415:B1 *147:12 0.000100767
36 *415:B1 *149:36 1.30914e-05
37 *421:B1 *92:14 0
38 *421:B1 *127:6 0.000149489
39 *426:B1 *149:26 5.50052e-05
40 *434:B1 *358:B 0
41 *434:B1 *429:A 3.46786e-05
42 *434:B1 *434:A3 5.52302e-05
43 *434:B1 *103:48 0.000101078
44 *434:B1 *149:18 0.000114824
45 *434:B1 *159:23 4.13496e-05
46 *434:B1 *159:31 0.000247309
47 *437:B *105:74 0
48 *442:B1 *354:A 0.000150625
49 *442:B1 *384:B 0.000324957
50 *442:B1 *385:A 1.58163e-05
51 *442:B1 *393:A1 0.000129615
52 *442:B1 *393:A3 5.33005e-05
53 *442:B1 *96:10 0
54 *442:B1 *103:16 0.000123486
55 *442:B1 *131:10 3.34366e-05
56 *442:B1 *150:24 0
57 *62:6 *351:B 6.3629e-05
58 *62:6 *149:36 0.000139337
59 *62:43 *388:A 5.4959e-05
60 *62:43 *99:6 2.85234e-05
61 *62:43 *99:23 7.36469e-05
62 *62:43 *149:26 0.000110961
63 *62:43 *149:36 3.14161e-05
64 *62:67 *425:A 0
65 *62:67 *429:A 0.000199362
66 *62:67 *431:A1 0.000193118
67 *62:67 *74:17 0.000139653
68 *62:67 *149:18 3.38229e-05
69 *62:71 *383:A2 5.33334e-05
70 *62:71 *383:B1 0.000225609
71 *62:71 *383:D1 2.40107e-05
72 *62:71 *94:16 0.000487467
73 *62:73 *479:A 5.65955e-05
74 *422:C1 *421:B1 0.00010096
75 *425:B *421:B1 5.54817e-06
76 *425:B *62:45 3.50522e-05
77 *425:B *62:67 0.000129845
78 *428:A1 *62:43 5.49995e-05
79 *428:A1 *62:45 3.14003e-05
80 *428:A1 *62:67 0.000286353
81 *434:C1 *434:B1 0
82 *437:A *437:B 0
83 *437:A *62:73 2.72887e-05
84 *439:A *437:B 1.19309e-05
85 *439:A *62:71 9.90367e-05
86 *440:B1 *437:B 7.6021e-05
87 *445:A2 *437:B 0.000143375
88 *445:B1 *437:B 0.000242806
89 *449:C1 *437:B 0.000187042
90 *465:A *421:B1 6.28677e-05
91 *50:8 *437:B 8.47203e-05
92 *61:10 *415:B1 0
*RES
1 *351:X *62:6 11.8893 
2 *62:6 *406:B1 28.8179 
3 *62:6 *415:B1 29.6036 
4 *351:X *62:43 20.4964 
5 *62:43 *62:45 1.03571 
6 *62:45 *421:B1 21.0679 
7 *62:45 *426:B1 14.3357 
8 *62:43 *62:67 11.9643 
9 *62:67 *62:71 13.6607 
10 *62:71 *62:73 4.23214 
11 *62:73 *442:B1 29.2643 
12 *62:73 *393:B1 9.3 
13 *62:71 *437:B 25.3536 
14 *62:67 *434:B1 20.3714 
*END

*D_NET *63 0.0130537
*CONN
*I *401:A2 I *D sky130_fd_sc_hd__a21o_2
*I *400:A2 I *D sky130_fd_sc_hd__o21a_4
*I *407:B1 I *D sky130_fd_sc_hd__o32a_2
*I *429:B I *D sky130_fd_sc_hd__or2_2
*I *428:B1 I *D sky130_fd_sc_hd__o32a_2
*I *423:B1 I *D sky130_fd_sc_hd__o2bb2a_2
*I *417:B1 I *D sky130_fd_sc_hd__o32a_2
*I *352:Y O *D sky130_fd_sc_hd__nand2_2
*CAP
1 *401:A2 3.03949e-05
2 *400:A2 0
3 *407:B1 0.000456972
4 *429:B 0
5 *428:B1 0.000334482
6 *423:B1 0.000524408
7 *417:B1 0.000501835
8 *352:Y 1.55901e-05
9 *63:84 0.000958183
10 *63:78 0.00123432
11 *63:52 0.000334482
12 *63:50 0.00113256
13 *63:12 0.00120584
14 *63:8 0.000625029
15 *401:A2 *401:A1 3.50166e-05
16 *407:B1 *396:B 0
17 *407:B1 *399:A 0.000125724
18 *407:B1 *399:B 0
19 *407:B1 *403:A2 0.000121204
20 *407:B1 *403:B1 0.000103954
21 *407:B1 *404:A1 0.000120602
22 *407:B1 *404:A2 0
23 *407:B1 *407:A3 5.49995e-05
24 *407:B1 *100:46 0
25 *407:B1 *161:27 5.59013e-05
26 *417:B1 *411:B1 1.40847e-05
27 *417:B1 *412:A 2.62951e-05
28 *417:B1 *416:A2_N 0.000226418
29 *417:B1 *416:B1 0.000137983
30 *417:B1 *418:A2 1.74352e-05
31 *423:B1 *349:A 4.72917e-05
32 *423:B1 *378:A2 0.000186662
33 *423:B1 *378:B1 9.60939e-05
34 *423:B1 *381:B1 5.52238e-05
35 *423:B1 *418:A2 0.000177314
36 *423:B1 *423:B2 3.57366e-05
37 *428:B1 *362:B 0.000390633
38 *428:B1 *424:B1 0.000163884
39 *428:B1 *429:A 0.000102797
40 *428:B1 *478:A 0.000464925
41 *63:8 *352:A 1.35465e-05
42 *63:8 *389:B 7.25873e-06
43 *63:8 *103:64 5.49995e-05
44 *63:12 *420:B 8.91963e-06
45 *63:12 *103:64 0.00013835
46 *63:50 *420:B 6.93626e-06
47 *63:50 *105:74 0.000146261
48 *63:50 *134:83 2.16482e-05
49 *63:50 *149:36 0.000144732
50 *63:78 *440:A1 0.000125724
51 *63:78 *105:74 0.000459415
52 *63:84 *401:A1 0.000264755
53 *63:84 *480:A 0.000111172
54 *63:84 *109:19 0.000426985
55 *63:84 *161:16 0
56 *419:A2 *63:12 0
57 *423:A2_N *423:B1 2.77143e-05
58 *428:A1 *428:B1 0.000140243
59 *440:B1 *63:78 2.59093e-05
60 *441:B *63:78 6.59657e-05
61 *441:C *63:78 7.49387e-06
62 *445:A3 *63:78 0.000155637
63 *446:B *63:78 9.41642e-05
64 *459:A *407:B1 8.00518e-05
65 *460:A *407:B1 5.66971e-05
66 *32:10 *423:B1 0.000144773
67 *32:10 *63:12 0
68 *41:6 *428:B1 9.84673e-05
69 *50:8 *63:78 3.57844e-05
70 *60:6 *423:B1 7.22263e-05
71 *61:10 *417:B1 3.61629e-06
*RES
1 *352:Y *63:8 14.3357 
2 *63:8 *63:12 8.26786 
3 *63:12 *417:B1 24.9071 
4 *63:12 *423:B1 21.3893 
5 *63:8 *63:50 7.71429 
6 *63:50 *63:52 4.5 
7 *63:52 *428:B1 19.4429 
8 *63:52 *429:B 9.3 
9 *63:50 *63:78 17.1071 
10 *63:78 *63:84 9.19643 
11 *63:84 *407:B1 28.675 
12 *63:84 *400:A2 9.3 
13 *63:78 *401:A2 10.0321 
*END

*D_NET *64 0.000659641
*CONN
*I *482:A I *D sky130_fd_sc_hd__buf_2
*I *471:A I *D sky130_fd_sc_hd__buf_8
*I *353:X O *D sky130_fd_sc_hd__or3b_4
*CAP
1 *482:A 0.000121401
2 *471:A 0
3 *353:X 0.000119563
4 *64:8 0.000240965
5 *482:A *150:24 2.29917e-05
6 *64:8 *134:68 6.93626e-06
7 *448:D1 *64:8 0.000147784
*RES
1 *353:X *64:8 16.3536 
2 *64:8 *471:A 13.8 
3 *64:8 *482:A 16.05 
*END

*D_NET *65 0.00223525
*CONN
*I *355:B I *D sky130_fd_sc_hd__nor2_2
*I *438:B I *D sky130_fd_sc_hd__xnor2_2
*I *359:A2 I *D sky130_fd_sc_hd__a21boi_2
*I *354:X O *D sky130_fd_sc_hd__xor2_2
*CAP
1 *355:B 0.000113586
2 *438:B 8.52071e-05
3 *359:A2 0.000147178
4 *354:X 0
5 *65:8 0.000267995
6 *65:4 0.000149196
7 *355:B *395:A2_N 3.88131e-05
8 *355:B *103:29 7.57312e-05
9 *359:A2 *384:B 0
10 *359:A2 *479:A 0.000170955
11 *359:A2 *70:6 0.000186765
12 *359:A2 *94:16 1.59373e-05
13 *359:A2 *150:24 6.27272e-06
14 *438:B *479:A 0.000194484
15 *438:B *150:24 8.00634e-06
16 *438:B *150:33 2.18777e-05
17 *65:8 *395:A2_N 4.82947e-05
18 *65:8 *103:29 4.82947e-05
19 *359:A1 *359:A2 9.83388e-05
20 *444:B1 *438:B 4.63699e-05
21 *445:B1 *355:B 0.000191969
22 *59:12 *355:B 0.000221634
23 *59:14 *359:A2 9.83442e-05
*RES
1 *354:X *65:4 9.3 
2 *65:4 *65:8 5.44643 
3 *65:8 *359:A2 18.2286 
4 *65:8 *438:B 16.3536 
5 *65:4 *355:B 22.2107 
*END

*D_NET *66 0.0020816
*CONN
*I *358:A_N I *D sky130_fd_sc_hd__nand2b_2
*I *383:B1 I *D sky130_fd_sc_hd__a2111o_2
*I *355:Y O *D sky130_fd_sc_hd__nor2_2
*CAP
1 *358:A_N 0.00016288
2 *383:B1 0.000205035
3 *355:Y 0.000236574
4 *66:8 0.000604489
5 *358:A_N *348:A 0
6 *358:A_N *359:B1_N 0.000128161
7 *358:A_N *395:A2_N 0
8 *358:A_N *434:A3 0
9 *358:A_N *159:31 0
10 *383:B1 *383:D1 3.14048e-05
11 *383:B1 *71:10 0
12 *383:B1 *105:74 0
13 *66:8 *359:B1_N 0.000116039
14 *66:8 *94:16 5.52238e-05
15 *66:8 *105:108 0.000316184
16 *435:B1 *358:A_N 0
17 *435:B1 *383:B1 0
18 *444:C1 *358:A_N 0
19 *62:71 *383:B1 0.000225609
*RES
1 *355:Y *66:8 18.8536 
2 *66:8 *383:B1 17.925 
3 *66:8 *358:A_N 16.9607 
*END

*D_NET *67 0.0012385
*CONN
*I *360:A_N I *D sky130_fd_sc_hd__and2b_2
*I *357:B I *D sky130_fd_sc_hd__and2b_2
*I *356:X O *D sky130_fd_sc_hd__xor2_2
*CAP
1 *360:A_N 1.06454e-05
2 *357:B 5.82809e-05
3 *356:X 0.000148637
4 *67:10 0.000217563
5 *357:B *68:10 2.59355e-05
6 *357:B *105:108 9.80173e-05
7 *360:A_N *68:10 2.89114e-05
8 *360:A_N *105:108 4.38128e-05
9 *67:10 *430:A 9.40095e-05
10 *67:10 *434:A3 0
11 *67:10 *68:10 0.00019384
12 *67:10 *149:10 0.000123288
13 *67:10 *149:18 0.000195562
14 *67:10 *159:10 0
15 *67:10 *159:21 0
*RES
1 *356:X *67:10 22.675 
2 *67:10 *357:B 10.675 
3 *67:10 *360:A_N 9.83571 
*END

*D_NET *68 0.00210993
*CONN
*I *430:A I *D sky130_fd_sc_hd__nor2_2
*I *358:B I *D sky130_fd_sc_hd__nand2b_2
*I *357:X O *D sky130_fd_sc_hd__and2b_2
*CAP
1 *430:A 0.00015906
2 *358:B 0.000329484
3 *357:X 0.000169917
4 *68:10 0.000658461
5 *358:B *434:A3 1.98839e-05
6 *358:B *103:48 2.28499e-05
7 *358:B *159:23 0.000136951
8 *358:B *159:31 0.000142856
9 *430:A *430:B 0
10 *430:A *434:A3 0
11 *68:10 *159:21 6.04069e-05
12 *357:B *68:10 2.59355e-05
13 *360:A_N *68:10 2.89114e-05
14 *434:B1 *358:B 0
15 *435:B1 *358:B 6.73591e-05
16 *67:10 *430:A 9.40095e-05
17 *67:10 *68:10 0.00019384
*RES
1 *357:X *68:10 17.3 
2 *68:10 *358:B 18.8893 
3 *68:10 *430:A 16.8 
*END

*D_NET *69 0.00156882
*CONN
*I *359:B1_N I *D sky130_fd_sc_hd__a21boi_2
*I *358:Y O *D sky130_fd_sc_hd__nand2b_2
*CAP
1 *359:B1_N 0.000414424
2 *358:Y 0.000414424
3 *359:B1_N *94:16 3.84522e-05
4 *359:B1_N *105:108 0.000358977
5 *358:A_N *359:B1_N 0.000128161
6 *435:B1 *359:B1_N 0
7 *59:14 *359:B1_N 9.83388e-05
8 *66:8 *359:B1_N 0.000116039
*RES
1 *358:Y *359:B1_N 36.7607 
*END

*D_NET *70 0.00264766
*CONN
*I *397:A I *D sky130_fd_sc_hd__and3_4
*I *390:A1 I *D sky130_fd_sc_hd__a211o_2
*I *359:Y O *D sky130_fd_sc_hd__a21boi_2
*CAP
1 *397:A 0
2 *390:A1 0.000334338
3 *359:Y 0.000272303
4 *70:6 0.000606641
5 *390:A1 *390:A2 0.000502398
6 *390:A1 *390:B1 1.09026e-05
7 *390:A1 *396:A 0.000218734
8 *390:A1 *396:B 0.000335215
9 *390:A1 *397:B 3.4879e-05
10 *390:A1 *397:C 1.58163e-05
11 *390:A1 *398:D_N 2.26327e-05
12 *70:6 *397:B 8.77293e-05
13 *70:6 *94:16 1.93106e-05
14 *359:A2 *70:6 0.000186765
15 *459:A *390:A1 0
*RES
1 *359:Y *70:6 14.3536 
2 *70:6 *390:A1 27.7821 
3 *70:6 *397:A 9.3 
*END

*D_NET *71 0.00339457
*CONN
*I *430:B I *D sky130_fd_sc_hd__nor2_2
*I *383:C1 I *D sky130_fd_sc_hd__a2111o_2
*I *361:A I *D sky130_fd_sc_hd__inv_2
*I *360:X O *D sky130_fd_sc_hd__and2b_2
*CAP
1 *430:B 0.000162091
2 *383:C1 0
3 *361:A 0.000192671
4 *360:X 0.000755938
5 *71:10 0.000786517
6 *361:A *445:A1 9.61455e-05
7 *430:B *159:21 8.9163e-05
8 *71:10 *357:A_N 5.52302e-05
9 *71:10 *105:108 0.000343777
10 *383:B1 *71:10 0
11 *430:A *430:B 0
12 *435:B1 *361:A 0.000197984
13 *435:B1 *71:10 9.67001e-05
14 *441:B *361:A 0.000320024
15 *42:8 *430:B 6.39901e-05
16 *42:14 *430:B 9.14786e-05
17 *47:10 *361:A 0.000142856
*RES
1 *360:X *71:10 22.4429 
2 *71:10 *361:A 19.8893 
3 *71:10 *383:C1 13.8 
4 *360:X *430:B 31.6714 
*END

*D_NET *72 0.000746038
*CONN
*I *441:A I *D sky130_fd_sc_hd__nand3_2
*I *440:A1 I *D sky130_fd_sc_hd__a21o_2
*I *361:Y O *D sky130_fd_sc_hd__inv_2
*CAP
1 *441:A 0
2 *440:A1 8.36043e-05
3 *361:Y 1.71246e-05
4 *72:6 0.000100729
5 *440:A1 *445:A1 4.58194e-05
6 *72:6 *445:A1 4.72917e-05
7 *440:B1 *440:A1 0.000100823
8 *441:B *440:A1 9.41642e-05
9 *441:B *72:6 9.90431e-05
10 *50:8 *440:A1 3.17148e-05
11 *63:78 *440:A1 0.000125724
*RES
1 *361:Y *72:6 10.2464 
2 *72:6 *440:A1 20.8893 
3 *72:6 *441:A 9.3 
*END

*D_NET *73 0.00259717
*CONN
*I *363:A_N I *D sky130_fd_sc_hd__and2b_2
*I *364:B I *D sky130_fd_sc_hd__and2b_2
*I *362:X O *D sky130_fd_sc_hd__xor2_2
*CAP
1 *363:A_N 0.000132435
2 *364:B 0
3 *362:X 0.000585638
4 *73:14 0.000718073
5 *363:A_N *363:B 5.52238e-05
6 *363:A_N *159:10 0.000100625
7 *73:14 *362:A 1.17407e-05
8 *73:14 *362:B 3.02581e-06
9 *73:14 *422:A2 9.93733e-05
10 *73:14 *103:56 0.000174737
11 *73:14 *105:114 0.000340066
12 *73:14 *141:8 7.74135e-05
13 *73:14 *158:34 0
14 *73:14 *158:47 0
15 *431:B1 *73:14 0.000170654
16 *42:14 *73:14 0.000128161
*RES
1 *362:X *73:14 30.3536 
2 *73:14 *364:B 9.3 
3 *73:14 *363:A_N 12.2107 
*END

*D_NET *74 0.00341997
*CONN
*I *432:A1 I *D sky130_fd_sc_hd__o31a_2
*I *365:A I *D sky130_fd_sc_hd__nor2_2
*I *431:A1 I *D sky130_fd_sc_hd__o21ai_2
*I *383:D1 I *D sky130_fd_sc_hd__a2111o_2
*I *363:X O *D sky130_fd_sc_hd__and2b_2
*CAP
1 *432:A1 0
2 *365:A 0.000294113
3 *431:A1 7.33164e-05
4 *383:D1 0.000287477
5 *363:X 3.34544e-05
6 *74:28 0.000294113
7 *74:17 0.000129681
8 *74:6 0.000377297
9 *365:A *432:B1 0.000153247
10 *365:A *478:A 5.33005e-05
11 *365:A *76:6 9.60939e-05
12 *365:A *76:10 0.00038907
13 *383:D1 *383:A2 7.32173e-05
14 *431:A1 *432:A2 0.000168939
15 *431:A1 *149:18 9.10431e-06
16 *74:6 *383:A2 2.89114e-05
17 *74:17 *432:A2 9.25014e-06
18 *74:17 *149:18 7.15591e-05
19 result[5] *365:A 0.000306311
20 *383:B1 *383:D1 3.14048e-05
21 *432:A3 *365:A 4.83016e-05
22 *435:A1 *365:A 0.000135028
23 *62:67 *431:A1 0.000193118
24 *62:67 *74:17 0.000139653
25 *62:71 *383:D1 2.40107e-05
*RES
1 *363:X *74:6 9.83571 
2 *74:6 *383:D1 12.7107 
3 *74:6 *74:17 6.44643 
4 *74:17 *431:A1 16.3536 
5 *74:17 *74:28 4.5 
6 *74:28 *365:A 17.8 
7 *74:28 *432:A1 9.3 
*END

*D_NET *75 0.000641628
*CONN
*I *365:B I *D sky130_fd_sc_hd__nor2_2
*I *364:X O *D sky130_fd_sc_hd__and2b_2
*CAP
1 *365:B 0.000275341
2 *364:X 0.000275341
3 *365:B *103:50 0
4 *365:B *159:10 2.22999e-05
5 result[5] *365:B 2.8266e-06
6 *467:A *365:B 6.58195e-05
*RES
1 *364:X *365:B 32.4393 
*END

*D_NET *76 0.0043349
*CONN
*I *427:B2 I *D sky130_fd_sc_hd__a2bb2o_2
*I *383:A2 I *D sky130_fd_sc_hd__a2111o_2
*I *424:A1 I *D sky130_fd_sc_hd__o21ai_2
*I *382:A I *D sky130_fd_sc_hd__and2_2
*I *365:Y O *D sky130_fd_sc_hd__nor2_2
*CAP
1 *427:B2 3.26562e-05
2 *383:A2 0.000262665
3 *424:A1 6.8532e-05
4 *382:A 5.48524e-05
5 *365:Y 9.95001e-05
6 *76:16 0.000513099
7 *76:10 0.000943297
8 *76:6 0.000423074
9 *383:A2 *363:B 9.90367e-05
10 *383:A2 *478:A 4.56437e-05
11 *383:A2 *149:18 6.53874e-05
12 *383:A2 *158:47 0.000122651
13 *424:A1 *99:38 0.000172814
14 *427:B2 *103:50 0.000103253
15 *76:16 *382:B 2.59355e-05
16 *76:16 *432:A2 4.72917e-05
17 *76:16 *478:A 0.000175526
18 *76:16 *93:22 9.7659e-05
19 *76:16 *158:34 3.17163e-05
20 *76:16 *158:47 5.84171e-05
21 result[5] *427:B2 0.000103253
22 *365:A *76:6 9.60939e-05
23 *365:A *76:10 0.00038907
24 *383:D1 *383:A2 7.32173e-05
25 *431:B1 *76:16 2.79421e-05
26 *440:A2 *382:A 1.92789e-05
27 *440:A2 *76:16 3.98547e-05
28 *449:C1 *424:A1 6.09369e-05
29 *62:71 *383:A2 5.33334e-05
30 *74:6 *383:A2 2.89114e-05
*RES
1 *365:Y *76:6 10.6571 
2 *76:6 *76:10 8.32143 
3 *76:10 *76:16 12.2143 
4 *76:16 *382:A 10.2643 
5 *76:16 *424:A1 20.55 
6 *76:10 *383:A2 20.3714 
7 *76:6 *427:B2 19.6393 
*END

*D_NET *77 0.00165628
*CONN
*I *378:A2 I *D sky130_fd_sc_hd__a21oi_2
*I *379:B I *D sky130_fd_sc_hd__xnor2_2
*I *369:A2 I *D sky130_fd_sc_hd__o22a_2
*I *366:X O *D sky130_fd_sc_hd__xor2_2
*CAP
1 *378:A2 0.000168969
2 *379:B 0
3 *369:A2 0.000181403
4 *366:X 0.000104133
5 *77:17 0.000365115
6 *77:6 0.000481682
7 *378:A2 *349:A 5.52238e-05
8 *378:A2 *422:B2 0
9 *77:17 *366:B 0
10 *77:17 *422:B2 0
11 *369:A1 *77:17 0
12 *423:A2_N *378:A2 1.21289e-05
13 *423:B1 *378:A2 0.000186662
14 *60:6 *378:A2 0.00010096
15 *60:10 *378:A2 0
16 *60:10 *77:17 0
*RES
1 *366:X *77:6 11.0679 
2 *77:6 *369:A2 12.3 
3 *77:6 *77:17 7.35714 
4 *77:17 *379:B 13.8 
5 *77:17 *378:A2 17.8179 
*END

*D_NET *78 0.00136143
*CONN
*I *369:B1 I *D sky130_fd_sc_hd__o22a_2
*I *368:B I *D sky130_fd_sc_hd__nor2_2
*I *370:B I *D sky130_fd_sc_hd__and2_2
*I *367:X O *D sky130_fd_sc_hd__xor2_2
*CAP
1 *369:B1 0.000146635
2 *368:B 0.000125406
3 *370:B 0
4 *367:X 6.92253e-05
5 *78:13 0.000296529
6 *78:6 9.37137e-05
7 *368:B *371:B 0
8 *368:B *418:B1 0.000106533
9 *368:A *368:B 2.91699e-05
10 *369:B2 *369:B1 0.000343591
11 *369:B2 *78:6 9.90431e-05
12 *369:B2 *78:13 4.18895e-05
13 *61:10 *368:B 9.69119e-06
*RES
1 *367:X *78:6 10.6571 
2 *78:6 *370:B 9.3 
3 *78:6 *78:13 0.535714 
4 *78:13 *368:B 21.1571 
5 *78:13 *369:B1 12.7107 
*END

*D_NET *79 0.00132778
*CONN
*I *418:B1 I *D sky130_fd_sc_hd__a21oi_2
*I *371:A I *D sky130_fd_sc_hd__nor2_2
*I *368:Y O *D sky130_fd_sc_hd__nor2_2
*CAP
1 *418:B1 0.000306394
2 *371:A 6.8234e-05
3 *368:Y 0
4 *79:4 0.000374628
5 *371:A *82:14 3.18676e-05
6 *418:B1 *371:B 1.00375e-05
7 *418:B1 *418:A1 0
8 *418:B1 *487:A 9.24491e-05
9 *418:B1 *82:14 0.000337637
10 *418:B1 *82:27 0
11 *368:B *418:B1 0.000106533
12 *61:10 *418:B1 0
*RES
1 *368:Y *79:4 9.3 
2 *79:4 *371:A 10.675 
3 *79:4 *418:B1 25.4071 
*END

*D_NET *80 0.000918121
*CONN
*I *378:B1 I *D sky130_fd_sc_hd__a21oi_2
*I *369:X O *D sky130_fd_sc_hd__o22a_2
*CAP
1 *378:B1 0.000214253
2 *369:X 0.000214253
3 *378:B1 *418:A2 1.24368e-05
4 *378:B1 *420:A 0.000246064
5 *378:B1 *487:A 9.24491e-05
6 *378:B1 *82:14 4.25716e-05
7 *369:A1 *378:B1 0
8 *423:B1 *378:B1 9.60939e-05
*RES
1 *369:X *378:B1 32.6179 
*END

*D_NET *81 0.00071081
*CONN
*I *371:B I *D sky130_fd_sc_hd__nor2_2
*I *370:X O *D sky130_fd_sc_hd__and2_2
*CAP
1 *371:B 0.000263834
2 *370:X 0.000263834
3 *371:B *82:14 7.99936e-05
4 *368:B *371:B 0
5 *369:B2 *371:B 9.3111e-05
6 *418:B1 *371:B 1.00375e-05
*RES
1 *370:X *371:B 31.85 
*END

*D_NET *82 0.00461182
*CONN
*I *381:A1 I *D sky130_fd_sc_hd__a31o_4
*I *418:A1 I *D sky130_fd_sc_hd__a21oi_2
*I *416:B2 I *D sky130_fd_sc_hd__a2bb2o_2
*I *413:A1 I *D sky130_fd_sc_hd__a21oi_2
*I *414:A1 I *D sky130_fd_sc_hd__o21a_2
*I *371:Y O *D sky130_fd_sc_hd__nor2_2
*CAP
1 *381:A1 0
2 *418:A1 5.55186e-05
3 *416:B2 4.79516e-05
4 *413:A1 0.000827822
5 *414:A1 5.54238e-05
6 *371:Y 0.000315941
7 *82:31 0.00113652
8 *82:27 0.000396116
9 *82:16 0.000190526
10 *82:14 0.000371194
11 *413:A1 *350:A 0.000177719
12 *413:A1 *372:B 0
13 *413:A1 *475:A 0
14 *413:A1 *88:29 0
15 *414:A1 *381:A3 5.52238e-05
16 *416:B2 *367:B 6.47471e-05
17 *418:A1 *411:B1 2.19778e-05
18 *418:A1 *487:A 0
19 *82:14 *381:A2 4.87854e-05
20 *82:14 *487:A 5.33005e-05
21 *82:31 *350:A 0.000154666
22 *369:A1 *82:14 0
23 *371:A *82:14 3.18676e-05
24 *371:B *82:14 7.99936e-05
25 *378:B1 *82:14 4.25716e-05
26 *418:B1 *418:A1 0
27 *418:B1 *82:14 0.000337637
28 *418:B1 *82:27 0
29 *61:10 *418:A1 1.04707e-05
30 *61:10 *82:27 0.000135841
*RES
1 *371:Y *82:14 25.8 
2 *82:14 *82:16 0.946429 
3 *82:16 *414:A1 10.2464 
4 *82:16 *82:27 6.29464 
5 *82:27 *82:31 3.96147 
6 *82:31 *413:A1 18.9372 
7 *82:31 *416:B2 18.0939 
8 *82:27 *418:A1 14.9875 
9 *82:14 *381:A1 9.3 
*END

*D_NET *83 0.00268262
*CONN
*I *373:A_N I *D sky130_fd_sc_hd__and2b_2
*I *374:A I *D sky130_fd_sc_hd__xnor2_2
*I *372:X O *D sky130_fd_sc_hd__xor2_2
*CAP
1 *373:A_N 0.00095523
2 *374:A 0
3 *372:X 0.000120186
4 *83:8 0.00107542
5 *373:A_N *372:B 0
6 *373:A_N *373:B 1.3701e-05
7 *373:A_N *376:A1 6.99716e-05
8 *373:A_N *410:A1 0
9 *373:A_N *411:B2 0
10 *373:A_N *412:C 8.00806e-05
11 *373:A_N *447:B 0
12 *373:A_N *474:A 0.00021645
13 *373:A_N *85:23 0
14 *373:A_N *105:43 0
15 *373:A_N *135:23 0
16 *373:A_N *162:6 9.71197e-05
17 *373:A_N *162:10 1.49929e-05
18 *83:8 *372:B 0
19 *83:8 *377:A1 3.94763e-05
20 *83:8 *85:23 0
*RES
1 *372:X *83:8 16.3536 
2 *83:8 *374:A 13.8 
3 *83:8 *373:A_N 28.425 
*END

*D_NET *84 0.00296025
*CONN
*I *377:B1 I *D sky130_fd_sc_hd__a21o_4
*I *373:X O *D sky130_fd_sc_hd__and2b_2
*CAP
1 *377:B1 0
2 *373:X 0.000615166
3 *84:20 0.000615166
4 *84:20 *373:B 0.00026353
5 *84:20 *374:B 0.000238762
6 *84:20 *377:A2 0.000116174
7 *84:20 *412:C 0.000264755
8 *84:20 *415:A1 0.00026367
9 *84:20 *416:A2_N 0.000265453
10 *84:20 *447:C 8.98585e-05
11 *84:20 *475:A 9.25014e-06
12 *84:20 *87:12 4.78056e-05
13 *84:20 *135:23 0.000170661
*RES
1 *373:X *84:20 41.8357 
2 *84:20 *377:B1 9.3 
*END

*D_NET *85 0.00241863
*CONN
*I *411:B2 I *D sky130_fd_sc_hd__a2bb2o_2
*I *409:A1 I *D sky130_fd_sc_hd__o21a_2
*I *408:A1 I *D sky130_fd_sc_hd__a21oi_2
*I *377:A1 I *D sky130_fd_sc_hd__a21o_4
*I *374:Y O *D sky130_fd_sc_hd__xnor2_2
*CAP
1 *411:B2 0.000163353
2 *409:A1 0
3 *408:A1 9.85902e-05
4 *377:A1 0.000121898
5 *374:Y 7.58466e-05
6 *85:25 9.85902e-05
7 *85:23 0.00028688
8 *85:8 0.000321272
9 *377:A1 *372:B 0
10 *377:A1 *377:A2 0.00014677
11 *408:A1 *408:B1 0.000168311
12 *408:A1 *409:B1 1.98839e-05
13 *408:A1 *412:A 0.000221634
14 *408:A1 *413:B1 1.04232e-05
15 *411:B2 *374:B 1.08359e-05
16 *411:B2 *377:A2 5.58941e-05
17 *411:B2 *411:A2_N 2.89114e-05
18 *411:B2 *411:B1 3.57366e-05
19 *411:B2 *412:B 0.000137983
20 *411:B2 *416:A2_N 4.13496e-05
21 *411:B2 *135:23 4.33438e-05
22 *411:B2 *135:27 0
23 *85:8 *374:B 9.60939e-05
24 *85:23 *377:A2 0.000195555
25 *373:A_N *411:B2 0
26 *373:A_N *85:23 0
27 *83:8 *377:A1 3.94763e-05
28 *83:8 *85:23 0
*RES
1 *374:Y *85:8 15.1571 
2 *85:8 *377:A1 17.0143 
3 *85:8 *85:23 2.55357 
4 *85:23 *85:25 4.5 
5 *85:25 *408:A1 12.3357 
6 *85:25 *409:A1 9.3 
7 *85:23 *411:B2 17.8357 
*END

*D_NET *86 0.000987432
*CONN
*I *376:B1 I *D sky130_fd_sc_hd__o21ai_2
*I *375:Y O *D sky130_fd_sc_hd__nand2_2
*CAP
1 *376:B1 0.00019645
2 *375:Y 0.00019645
3 *376:B1 *412:C 2.87584e-05
4 *376:B1 *447:C 9.93368e-05
5 *376:B1 *474:A 9.71197e-05
6 *376:B1 *87:12 5.33005e-05
7 *376:B1 *100:16 2.02794e-05
8 *376:B1 *100:20 0.000104532
9 *376:B1 *100:46 5.58331e-05
10 *376:B1 *151:63 1.34741e-05
11 *406:B1 *376:B1 0.000121897
*RES
1 *375:Y *376:B1 33.225 
*END

*D_NET *87 0.00289076
*CONN
*I *377:A2 I *D sky130_fd_sc_hd__a21o_4
*I *409:A2 I *D sky130_fd_sc_hd__o21a_2
*I *408:A2 I *D sky130_fd_sc_hd__a21oi_2
*I *376:Y O *D sky130_fd_sc_hd__o21ai_2
*CAP
1 *377:A2 0.000146491
2 *409:A2 2.46213e-05
3 *408:A2 0
4 *376:Y 0.000214268
5 *87:21 0.000328118
6 *87:12 0.000371274
7 *377:A2 *374:B 0.000216297
8 *409:A2 *409:B1 9.60875e-05
9 *409:A2 *135:8 9.60875e-05
10 *87:12 *412:C 9.60875e-05
11 *87:12 *447:C 5.27703e-06
12 *87:12 *474:A 2.28499e-05
13 *87:12 *475:A 7.03856e-05
14 *87:12 *100:20 0.000327559
15 *87:21 *408:B1 0.000130836
16 *87:21 *409:B1 4.08637e-05
17 *87:21 *413:B1 3.4855e-05
18 *87:21 *135:8 5.33005e-05
19 *376:B1 *87:12 5.33005e-05
20 *377:A1 *377:A2 0.00014677
21 *411:B2 *377:A2 5.58941e-05
22 *84:20 *377:A2 0.000116174
23 *84:20 *87:12 4.78056e-05
24 *85:23 *377:A2 0.000195555
*RES
1 *376:Y *87:12 23.6214 
2 *87:12 *408:A2 9.3 
3 *87:12 *87:21 3.01786 
4 *87:21 *409:A2 10.2464 
5 *87:21 *377:A2 23.8893 
*END

*D_NET *88 0.00368726
*CONN
*I *487:A I *D sky130_fd_sc_hd__buf_2
*I *414:A2 I *D sky130_fd_sc_hd__o21a_2
*I *381:A3 I *D sky130_fd_sc_hd__a31o_4
*I *413:A2 I *D sky130_fd_sc_hd__a21oi_2
*I *377:X O *D sky130_fd_sc_hd__a21o_4
*CAP
1 *487:A 0.000132602
2 *414:A2 0
3 *381:A3 0.000201452
4 *413:A2 1.78626e-05
5 *377:X 0.000508792
6 *88:29 0.000258236
7 *88:14 0.00071604
8 *381:A3 *415:A3 1.24368e-05
9 *413:A2 *414:B1 9.83388e-05
10 *413:A2 *415:A1 9.83388e-05
11 *487:A *381:A2 1.56e-05
12 *487:A *420:A 1.00375e-05
13 *88:14 *412:A 5.33614e-05
14 *88:14 *415:A2 6.12326e-06
15 *88:14 *475:A 0
16 *88:14 *146:10 0.0003225
17 *88:29 *412:A 5.13496e-05
18 *88:29 *414:B1 0.000393096
19 *88:29 *415:A3 3.8274e-05
20 *88:29 *417:A1 0.000310489
21 *88:29 *475:A 0
22 result[2] *88:14 0.000148911
23 *368:A *88:14 0
24 *378:B1 *487:A 9.24491e-05
25 *413:A1 *88:29 0
26 *414:A1 *381:A3 5.52238e-05
27 *418:A1 *487:A 0
28 *418:B1 *487:A 9.24491e-05
29 *82:14 *487:A 5.33005e-05
*RES
1 *377:X *88:14 24.6036 
2 *88:14 *413:A2 14.7464 
3 *88:14 *88:29 9.875 
4 *88:29 *381:A3 10.675 
5 *88:29 *414:A2 9.3 
6 *381:A3 *487:A 31.1 
*END

*D_NET *89 0.000815463
*CONN
*I *381:B1 I *D sky130_fd_sc_hd__a31o_4
*I *378:Y O *D sky130_fd_sc_hd__a21oi_2
*CAP
1 *381:B1 0.000213188
2 *378:Y 0.000213188
3 *381:B1 *381:A2 3.14048e-05
4 *381:B1 *420:A 5.57914e-05
5 *381:B1 *91:6 5.41609e-05
6 *381:B1 *92:14 0.00018167
7 *423:B1 *381:B1 5.52238e-05
8 *60:10 *381:B1 1.08359e-05
*RES
1 *378:Y *381:B1 32.6893 
*END

*D_NET *90 0.00199142
*CONN
*I *380:A I *D sky130_fd_sc_hd__inv_2
*I *422:B2 I *D sky130_fd_sc_hd__o221a_2
*I *379:Y O *D sky130_fd_sc_hd__xnor2_2
*CAP
1 *380:A 0.000211269
2 *422:B2 0.000356582
3 *379:Y 0.000133437
4 *90:6 0.000701288
5 *422:B2 *366:B 0
6 *422:B2 *448:B1 1.91418e-05
7 *422:B2 *157:10 0.000160453
8 *422:B2 *157:16 0.000193501
9 *378:A2 *422:B2 0
10 *379:A *380:A 0.000136299
11 *422:C1 *422:B2 4.57526e-05
12 *455:A *422:B2 3.37e-05
13 *77:17 *422:B2 0
*RES
1 *379:Y *90:6 11.4786 
2 *90:6 *422:B2 25.4071 
3 *90:6 *380:A 13.5857 
*END

*D_NET *91 0.00198117
*CONN
*I *420:A I *D sky130_fd_sc_hd__or3_2
*I *381:A2 I *D sky130_fd_sc_hd__a31o_4
*I *380:Y O *D sky130_fd_sc_hd__inv_2
*CAP
1 *420:A 0.000217683
2 *381:A2 0.000235417
3 *380:Y 0.000213296
4 *91:6 0.000666395
5 *420:A *92:14 0
6 *91:6 *92:14 1.32552e-05
7 *369:A1 *420:A 0
8 *378:B1 *420:A 0.000246064
9 *379:A *91:6 9.90431e-05
10 *381:B1 *381:A2 3.14048e-05
11 *381:B1 *420:A 5.57914e-05
12 *381:B1 *91:6 5.41609e-05
13 *419:A2 *420:A 2.8266e-06
14 *423:A2_N *420:A 2.79092e-05
15 *487:A *381:A2 1.56e-05
16 *487:A *420:A 1.00375e-05
17 *32:10 *420:A 4.35048e-05
18 *60:10 *420:A 0
19 *82:14 *381:A2 4.87854e-05
*RES
1 *380:Y *91:6 12.3 
2 *91:6 *381:A2 12.3179 
3 *91:6 *420:A 23.8893 
*END

*D_NET *92 0.00432872
*CONN
*I *383:A1 I *D sky130_fd_sc_hd__a2111o_2
*I *382:B I *D sky130_fd_sc_hd__and2_2
*I *424:A2 I *D sky130_fd_sc_hd__o21ai_2
*I *381:X O *D sky130_fd_sc_hd__a31o_4
*CAP
1 *383:A1 0.000201566
2 *382:B 2.04426e-05
3 *424:A2 0
4 *381:X 0.000738584
5 *92:23 0.000292651
6 *92:14 0.000809226
7 *383:A1 *429:A 0.000360109
8 *383:A1 *99:38 5.74562e-05
9 *92:14 *425:A 0.000370802
10 *92:14 *99:23 0.000304668
11 *92:14 *99:38 5.51716e-05
12 *92:23 *425:A 0.000149635
13 *92:23 *429:A 3.22834e-05
14 *92:23 *99:38 0.000210091
15 *381:B1 *92:14 0.00018167
16 *419:A2 *92:14 0
17 *420:A *92:14 0
18 *421:B1 *92:14 0
19 *423:A2_N *92:14 7.83659e-05
20 *435:B1 *383:A1 0.000197984
21 *440:A2 *382:B 5.33005e-05
22 *455:A *92:14 0
23 *60:10 *92:14 0.000175526
24 *76:16 *382:B 2.59355e-05
25 *91:6 *92:14 1.32552e-05
*RES
1 *381:X *92:14 29.4964 
2 *92:14 *424:A2 13.8 
3 *92:14 *92:23 2.85714 
4 *92:23 *382:B 14.3357 
5 *92:23 *383:A1 19.0143 
*END

*D_NET *93 0.00231845
*CONN
*I *432:A2 I *D sky130_fd_sc_hd__o31a_2
*I *431:A2 I *D sky130_fd_sc_hd__o21ai_2
*I *425:A I *D sky130_fd_sc_hd__nor2_2
*I *382:X O *D sky130_fd_sc_hd__and2_2
*CAP
1 *432:A2 9.34643e-05
2 *431:A2 0
3 *425:A 0.000252887
4 *382:X 0.000297022
5 *93:22 0.000137599
6 *425:A *429:A 0.000103267
7 *432:A2 *149:18 4.48323e-05
8 *425:B *425:A 0.000168299
9 *431:A1 *432:A2 0.000168939
10 *435:A1 *432:A2 0.000101545
11 *440:A2 *432:A2 9.41642e-05
12 *440:A2 *93:22 0.000181796
13 *62:67 *425:A 0
14 *74:17 *432:A2 9.25014e-06
15 *76:16 *432:A2 4.72917e-05
16 *76:16 *93:22 9.7659e-05
17 *92:14 *425:A 0.000370802
18 *92:23 *425:A 0.000149635
*RES
1 *382:X *425:A 34.4036 
2 *382:X *93:22 11.0679 
3 *93:22 *431:A2 9.3 
4 *93:22 *432:A2 21.4964 
*END

*D_NET *94 0.00328857
*CONN
*I *486:A I *D sky130_fd_sc_hd__buf_2
*I *397:B I *D sky130_fd_sc_hd__and3_4
*I *383:X O *D sky130_fd_sc_hd__a2111o_2
*CAP
1 *486:A 2.22847e-05
2 *397:B 0.000119451
3 *383:X 0.000868836
4 *94:16 0.00101057
5 *397:B *390:A2 0.000268403
6 *359:A1 *94:16 5.20669e-05
7 *359:A2 *94:16 1.59373e-05
8 *359:B1_N *94:16 3.84522e-05
9 *390:A1 *397:B 3.4879e-05
10 *439:A *94:16 3.69697e-05
11 *445:B1 *94:16 3.63281e-05
12 *59:14 *94:16 0.000134662
13 *62:71 *94:16 0.000487467
14 *66:8 *94:16 5.52238e-05
15 *70:6 *397:B 8.77293e-05
16 *70:6 *94:16 1.93106e-05
*RES
1 *383:X *94:16 30.6929 
2 *94:16 *397:B 12.7107 
3 *94:16 *486:A 9.72857 
*END

*D_NET *95 0.000225635
*CONN
*I *385:B I *D sky130_fd_sc_hd__xnor2_2
*I *384:Y O *D sky130_fd_sc_hd__xnor2_2
*CAP
1 *385:B 0.000102835
2 *384:Y 0.000102835
3 *385:B *96:10 0
4 *385:B *148:10 0
5 *459:A *385:B 1.99644e-05
*RES
1 *384:Y *385:B 29.5464 
*END

*D_NET *96 0.00197196
*CONN
*I *386:A I *D sky130_fd_sc_hd__inv_2
*I *390:B1 I *D sky130_fd_sc_hd__a211o_2
*I *385:Y O *D sky130_fd_sc_hd__xnor2_2
*CAP
1 *386:A 0
2 *390:B1 0.00037955
3 *385:Y 0.000169062
4 *96:10 0.000548612
5 *390:B1 *396:A 0.000182413
6 *390:B1 *396:B 0.000171577
7 *390:B1 *449:B1 0.000148189
8 *390:B1 *103:16 0.000316767
9 *96:10 *385:A 2.72859e-05
10 *96:10 *103:16 1.76039e-05
11 *385:B *96:10 0
12 *390:A1 *390:B1 1.09026e-05
13 *442:B1 *96:10 0
*RES
1 *385:Y *96:10 16.3893 
2 *96:10 *390:B1 24.175 
3 *96:10 *386:A 13.8 
*END

*D_NET *97 0.00150194
*CONN
*I *395:B2 I *D sky130_fd_sc_hd__a2bb2o_2
*I *396:A I *D sky130_fd_sc_hd__nor2_2
*I *386:Y O *D sky130_fd_sc_hd__inv_2
*CAP
1 *395:B2 0
2 *396:A 0.000271289
3 *386:Y 4.91061e-05
4 *97:8 0.000320395
5 *396:A *396:B 1.98839e-05
6 *396:A *398:A 6.57032e-05
7 *396:A *398:C 0
8 *396:A *399:B 9.41642e-05
9 *97:8 *384:B 0.000150336
10 *97:8 *395:A2_N 0.000129916
11 *390:A1 *396:A 0.000218734
12 *390:B1 *396:A 0.000182413
*RES
1 *386:Y *97:8 11.0857 
2 *97:8 *396:A 24.3357 
3 *97:8 *395:B2 9.3 
*END

*D_NET *98 0.000986401
*CONN
*I *392:A2 I *D sky130_fd_sc_hd__a21o_2
*I *387:Y O *D sky130_fd_sc_hd__nor2_2
*CAP
1 *392:A2 0.000403347
2 *387:Y 0.000403347
3 *392:A2 *392:A1 7.02461e-05
4 *392:A2 *392:B1 6.05161e-06
5 *392:A2 *393:A1 3.53943e-05
6 *392:A2 *105:12 9.59532e-06
7 *392:A2 *131:10 9.15842e-06
8 *392:A2 *151:74 3.2921e-05
9 *392:A2 *151:100 1.6341e-05
*RES
1 *387:Y *392:A2 34.2429 
*END

*D_NET *99 0.00566568
*CONN
*I *432:B1 I *D sky130_fd_sc_hd__o31a_2
*I *445:A1 I *D sky130_fd_sc_hd__a31o_2
*I *424:B1 I *D sky130_fd_sc_hd__o21ai_2
*I *419:A1 I *D sky130_fd_sc_hd__a21oi_2
*I *388:Y O *D sky130_fd_sc_hd__nor2_2
*CAP
1 *432:B1 0.00025291
2 *445:A1 0.000657024
3 *424:B1 0.000191603
4 *419:A1 0.000162373
5 *388:Y 1.42517e-05
6 *99:38 0.00109324
7 *99:23 0.00057591
8 *99:6 0.000377629
9 *99:6 *149:26 5.49995e-05
10 *99:23 *362:B 2.71192e-05
11 *99:23 *149:26 0.000129504
12 *361:A *445:A1 9.61455e-05
13 *365:A *432:B1 0.000153247
14 *383:A1 *99:38 5.74562e-05
15 *424:A1 *99:38 0.000172814
16 *428:B1 *424:B1 0.000163884
17 *432:A3 *432:B1 5.52302e-05
18 *435:A1 *432:B1 0.000150189
19 *435:A2 *432:B1 5.52302e-05
20 *435:B1 *432:B1 3.481e-05
21 *435:B1 *445:A1 6.05161e-06
22 *440:A1 *445:A1 4.58194e-05
23 *441:B *432:B1 3.51668e-05
24 *441:B *445:A1 3.08463e-05
25 *441:C *445:A1 0.000139632
26 *445:A3 *445:A1 4.05878e-05
27 *445:B1 *445:A1 2.976e-05
28 *449:C1 *99:38 0
29 *47:10 *445:A1 0.000142856
30 *47:10 *99:38 0
31 *62:43 *99:6 2.85234e-05
32 *62:43 *99:23 7.36469e-05
33 *72:6 *445:A1 4.72917e-05
34 *92:14 *99:23 0.000304668
35 *92:14 *99:38 5.51716e-05
36 *92:23 *99:38 0.000210091
*RES
1 *388:Y *99:6 9.83571 
2 *99:6 *419:A1 20.8536 
3 *99:6 *99:23 9.92857 
4 *99:23 *424:B1 16.4071 
5 *99:23 *99:38 9.48214 
6 *99:38 *445:A1 18.05 
7 *99:38 *432:B1 15.3714 
*END

*D_NET *100 0.00827793
*CONN
*I *420:B I *D sky130_fd_sc_hd__or3_2
*I *390:C1 I *D sky130_fd_sc_hd__a211o_2
*I *396:B I *D sky130_fd_sc_hd__nor2_2
*I *413:B1 I *D sky130_fd_sc_hd__a21oi_2
*I *408:B1 I *D sky130_fd_sc_hd__a21oi_2
*I *389:X O *D sky130_fd_sc_hd__or2_2
*CAP
1 *420:B 0.000484409
2 *390:C1 2.53547e-05
3 *396:B 0.000374468
4 *413:B1 6.42807e-05
5 *408:B1 8.17741e-05
6 *389:X 0
7 *100:46 0.000825699
8 *100:20 0.000428574
9 *100:16 0.00107871
10 *100:4 0.000854721
11 *396:B *398:A 8.25843e-06
12 *396:B *399:B 0.000135028
13 *396:B *481:A 5.33433e-05
14 *396:B *103:16 0
15 *408:B1 *409:B1 5.33005e-05
16 *408:B1 *412:A 1.21289e-05
17 *413:B1 *415:A1 0.000186662
18 *420:B *103:64 7.74135e-05
19 *100:16 *376:A2 0.000573198
20 *100:16 *389:B 0.000180951
21 *100:16 *447:A 4.37451e-05
22 *100:16 *151:63 0.000136733
23 *100:20 *415:A1 0.000240897
24 *100:20 *151:52 4.36585e-05
25 *100:46 *404:A2 0
26 *100:46 *404:B2 5.83768e-05
27 *100:46 *406:A3 0.000146261
28 *100:46 *102:10 8.21621e-05
29 *100:46 *103:16 8.33816e-05
30 *100:46 *124:49 0.000180235
31 *100:46 *151:52 9.16804e-07
32 *100:46 *151:100 0
33 *376:B1 *100:16 2.02794e-05
34 *376:B1 *100:20 0.000104532
35 *376:B1 *100:46 5.58331e-05
36 *390:A1 *396:B 0.000335215
37 *390:B1 *396:B 0.000171577
38 *396:A *396:B 1.98839e-05
39 *406:B1 *100:16 9.58632e-05
40 *407:B1 *396:B 0
41 *407:B1 *100:46 0
42 *408:A1 *408:B1 0.000168311
43 *408:A1 *413:B1 1.04232e-05
44 *415:B1 *420:B 0.000126272
45 *420:C *420:B 3.67257e-05
46 *448:D1 *100:16 0.000109271
47 *63:12 *420:B 8.91963e-06
48 *63:50 *420:B 6.93626e-06
49 *87:12 *100:20 0.000327559
50 *87:21 *408:B1 0.000130836
51 *87:21 *413:B1 3.4855e-05
*RES
1 *389:X *100:4 9.3 
2 *100:4 *100:16 14.9196 
3 *100:16 *100:20 12.0625 
4 *100:20 *408:B1 12.0321 
5 *100:20 *413:B1 11.4964 
6 *100:16 *100:46 14.0089 
7 *100:46 *396:B 26.8357 
8 *100:46 *390:C1 9.72857 
9 *100:4 *420:B 24.9964 
*END

*D_NET *101 0.00166099
*CONN
*I *398:D_N I *D sky130_fd_sc_hd__or4b_4
*I *390:X O *D sky130_fd_sc_hd__a211o_2
*CAP
1 *398:D_N 0.000277239
2 *390:X 0.000277239
3 *398:D_N *390:A2 0.000447545
4 *398:D_N *397:C 0.00014285
5 *398:D_N *398:B 5.71472e-05
6 *398:D_N *399:B 0.000308599
7 *398:D_N *481:A 5.52302e-05
8 *398:D_N *109:12 7.25104e-05
9 *390:A1 *398:D_N 2.26327e-05
10 *459:A *398:D_N 0
*RES
1 *390:X *398:D_N 35.9929 
*END

*D_NET *102 0.0010013
*CONN
*I *392:B1 I *D sky130_fd_sc_hd__a21o_2
*I *404:B1 I *D sky130_fd_sc_hd__o22a_2
*I *391:X O *D sky130_fd_sc_hd__and3b_2
*CAP
1 *392:B1 9.11029e-05
2 *404:B1 3.8223e-05
3 *391:X 8.06947e-05
4 *102:10 0.000210021
5 *392:B1 *402:C 6.82998e-05
6 *392:B1 *103:16 9.58689e-05
7 *392:B1 *131:10 3.64864e-05
8 *404:B1 *402:C 7.22686e-05
9 *404:B1 *407:A1 9.75679e-05
10 *404:B1 *131:10 2.12647e-05
11 *102:10 *393:A1 6.28215e-05
12 *102:10 *103:16 3.2923e-05
13 *102:10 *151:100 5.54817e-06
14 *392:A2 *392:B1 6.05161e-06
15 *100:46 *102:10 8.21621e-05
*RES
1 *391:X *102:10 20.55 
2 *102:10 *404:B1 10.6571 
3 *102:10 *392:B1 11.4786 
*END

*D_NET *103 0.0158914
*CONN
*I *433:B2 I *D sky130_fd_sc_hd__a2bb2o_2
*I *427:B1 I *D sky130_fd_sc_hd__a2bb2o_2
*I *419:B1 I *D sky130_fd_sc_hd__a21oi_2
*I *416:B1 I *D sky130_fd_sc_hd__a2bb2o_2
*I *411:B1 I *D sky130_fd_sc_hd__a2bb2o_2
*I *444:A1 I *D sky130_fd_sc_hd__a211o_2
*I *395:B1 I *D sky130_fd_sc_hd__a2bb2o_2
*I *392:X O *D sky130_fd_sc_hd__a21o_2
*CAP
1 *433:B2 2.47148e-05
2 *427:B1 6.71205e-05
3 *419:B1 2.13113e-05
4 *416:B1 3.82303e-05
5 *411:B1 0.000732054
6 *444:A1 9.15136e-06
7 *395:B1 7.80414e-05
8 *392:X 0.000497265
9 *103:64 0.00143681
10 *103:56 0.00154217
11 *103:50 0.00124933
12 *103:48 0.00134103
13 *103:29 0.00136972
14 *103:16 0.000947431
15 *395:B1 *395:A2_N 7.91257e-05
16 *411:B1 *350:A 7.43238e-05
17 *411:B1 *412:B 0.000307343
18 *411:B1 *416:A2_N 0.000210477
19 *411:B1 *417:A3 0.000232779
20 *411:B1 *417:B2 4.0003e-05
21 *411:B1 *146:25 4.32258e-06
22 *416:B1 *350:A 2.59355e-05
23 *433:B2 *433:A2_N 4.90803e-05
24 *103:16 *393:A1 0.000267974
25 *103:16 *449:B1 0.000146474
26 *103:16 *485:A 0.000200413
27 *103:16 *131:10 9.75679e-05
28 *103:29 *395:A2_N 0.000198705
29 *103:48 *433:A1_N 2.41368e-05
30 *103:48 *433:A2_N 3.14048e-05
31 *103:48 *434:A3 1.38323e-05
32 *103:48 *159:23 1.57523e-05
33 *103:50 *433:A2_N 0.000151333
34 *103:50 *105:114 0.000543443
35 *103:56 *366:B 0.000220697
36 *103:56 *422:A1 1.65169e-05
37 *103:56 *422:A2 1.58163e-05
38 *103:56 *477:A 7.22686e-05
39 *103:56 *105:114 9.25014e-06
40 *103:56 *141:8 1.24912e-05
41 *103:56 *157:6 9.33654e-06
42 *103:64 *389:B 1.35553e-05
43 result[5] *103:50 3.34783e-05
44 result[5] *103:56 0.000102748
45 *355:B *103:29 7.57312e-05
46 *358:B *103:48 2.28499e-05
47 *365:B *103:50 0
48 *390:B1 *103:16 0.000316767
49 *392:B1 *103:16 9.58689e-05
50 *396:B *103:16 0
51 *411:B2 *411:B1 3.57366e-05
52 *415:B1 *411:B1 2.84729e-05
53 *415:B1 *103:64 0.000110182
54 *417:B1 *411:B1 1.40847e-05
55 *417:B1 *416:B1 0.000137983
56 *418:A1 *411:B1 2.19778e-05
57 *420:B *103:64 7.74135e-05
58 *422:B1 *103:56 0.000171944
59 *422:B1 *103:64 1.16543e-05
60 *427:B2 *103:50 0.000103253
61 *433:B1 *103:48 8.25843e-06
62 *434:B1 *103:48 0.000101078
63 *434:C1 *103:48 3.67142e-05
64 *435:B1 *103:48 0.000140933
65 *442:B1 *103:16 0.000123486
66 *444:B1 *444:A1 5.7661e-06
67 *444:B1 *103:29 0.000450823
68 *444:B1 *103:48 4.87953e-05
69 *466:A *103:56 0.000235597
70 *467:A *103:50 0
71 *59:12 *103:29 0.000121456
72 *59:12 *103:48 0.000212153
73 *61:10 *411:B1 5.71472e-05
74 *63:8 *103:64 5.49995e-05
75 *63:12 *103:64 0.00013835
76 *65:8 *103:29 4.82947e-05
77 *73:14 *103:56 0.000174737
78 *96:10 *103:16 1.76039e-05
79 *100:46 *103:16 8.33816e-05
80 *102:10 *103:16 3.2923e-05
*RES
1 *392:X *103:16 33.0857 
2 *103:16 *395:B1 10.6571 
3 *103:16 *103:29 9.60714 
4 *103:29 *444:A1 9.72857 
5 *103:29 *103:48 19.6964 
6 *103:48 *103:50 8.92857 
7 *103:50 *103:56 22.875 
8 *103:56 *103:64 14.9821 
9 *103:64 *411:B1 26.7643 
10 *103:64 *416:B1 15.1571 
11 *103:56 *419:B1 9.72857 
12 *103:50 *427:B1 14.7464 
13 *103:48 *433:B2 14.5321 
*END

*D_NET *104 0.00210634
*CONN
*I *398:A I *D sky130_fd_sc_hd__or4b_4
*I *393:X O *D sky130_fd_sc_hd__a31o_2
*CAP
1 *398:A 0.000771437
2 *393:X 0.000771437
3 *398:A *393:A1 9.41642e-05
4 *398:A *399:B 1.21258e-05
5 *398:A *402:A 8.02593e-05
6 *398:A *161:16 0.000152333
7 *396:A *398:A 6.57032e-05
8 *396:B *398:A 8.25843e-06
9 *459:A *398:A 0.000150618
*RES
1 *393:X *398:A 37.8857 
*END

*D_NET *105 0.0186303
*CONN
*I *433:A2_N I *D sky130_fd_sc_hd__a2bb2o_2
*I *427:A2_N I *D sky130_fd_sc_hd__a2bb2o_2
*I *422:A2 I *D sky130_fd_sc_hd__o221a_2
*I *443:B I *D sky130_fd_sc_hd__nor2_2
*I *395:A2_N I *D sky130_fd_sc_hd__a2bb2o_2
*I *416:A2_N I *D sky130_fd_sc_hd__a2bb2o_2
*I *411:A2_N I *D sky130_fd_sc_hd__a2bb2o_2
*I *405:B I *D sky130_fd_sc_hd__nor2_2
*I *394:Y O *D sky130_fd_sc_hd__nand3b_2
*CAP
1 *433:A2_N 0.000108301
2 *427:A2_N 0
3 *422:A2 0.000564442
4 *443:B 0
5 *395:A2_N 0.000890056
6 *416:A2_N 0.00033653
7 *411:A2_N 1.64772e-05
8 *405:B 0.00060464
9 *394:Y 0.00137273
10 *105:114 0.000780358
11 *105:108 0.000807922
12 *105:99 0.000493415
13 *105:74 0.00176693
14 *105:43 0.000827498
15 *105:12 0.00158469
16 *395:A2_N *384:B 0.000263792
17 *405:B *403:B1 4.75956e-06
18 *405:B *405:A 8.8175e-05
19 *405:B *124:23 8.6229e-06
20 *405:B *134:27 2.06791e-05
21 *405:B *148:26 0.000221071
22 *411:A2_N *135:27 2.89016e-05
23 *416:A2_N *373:B 7.80417e-05
24 *416:A2_N *412:B 8.43535e-06
25 *416:A2_N *417:A3 2.36643e-05
26 *416:A2_N *417:B2 0.000165128
27 *416:A2_N *135:27 2.59355e-05
28 *416:A2_N *146:25 1.03742e-05
29 *422:A2 *421:A1 6.84398e-05
30 *422:A2 *422:A1 1.87331e-05
31 *422:A2 *427:A1_N 1.66955e-05
32 *422:A2 *448:B1 3.61589e-06
33 *422:A2 *141:8 4.27842e-06
34 *422:A2 *157:6 5.33005e-05
35 *422:A2 *157:10 3.14003e-05
36 *422:A2 *158:21 0.000336278
37 *422:A2 *158:34 6.42338e-05
38 *105:12 *151:100 2.06112e-05
39 *105:43 *375:A 9.96553e-05
40 *105:43 *376:A2 0.000168356
41 *105:43 *404:A1 3.19573e-05
42 *105:43 *406:A3 6.93626e-06
43 *105:43 *407:A3 6.34961e-05
44 *105:43 *412:C 0
45 *105:43 *415:A1 3.08353e-05
46 *105:43 *124:36 1.90936e-05
47 *105:43 *124:49 8.08608e-06
48 *105:43 *135:23 5.66157e-05
49 *105:43 *137:12 2.11855e-05
50 *105:43 *148:26 3.18227e-05
51 *105:43 *151:52 3.42675e-05
52 *105:43 *162:10 4.98876e-05
53 *105:74 *134:68 0.000119478
54 *105:108 *357:A_N 5.52302e-05
55 *355:B *395:A2_N 3.88131e-05
56 *357:B *105:108 9.80173e-05
57 *358:A_N *395:A2_N 0
58 *359:B1_N *105:108 0.000358977
59 *360:A_N *105:108 4.38128e-05
60 *373:A_N *105:43 0
61 *383:B1 *105:74 0
62 *392:A2 *105:12 9.59532e-06
63 *395:B1 *395:A2_N 7.91257e-05
64 *411:B1 *416:A2_N 0.000210477
65 *411:B2 *411:A2_N 2.89114e-05
66 *411:B2 *416:A2_N 4.13496e-05
67 *417:B1 *416:A2_N 0.000226418
68 *422:B1 *422:A2 1.19813e-05
69 *428:A1 *422:A2 9.41642e-05
70 *428:A2 *422:A2 0.000337598
71 *428:A3 *422:A2 1.27916e-05
72 *431:B1 *422:A2 8.71761e-06
73 *433:B1 *433:A2_N 5.33005e-05
74 *433:B2 *433:A2_N 4.90803e-05
75 *437:B *105:74 0
76 *439:A *395:A2_N 0.000162572
77 *439:A *105:74 7.37102e-05
78 *444:C1 *395:A2_N 0.000103253
79 *448:D1 *105:74 0.000151699
80 *462:A *405:B 4.76333e-05
81 *462:A *105:43 4.25594e-05
82 *42:14 *433:A2_N 0.000214342
83 *42:14 *105:114 0.000189428
84 *47:10 *105:74 0
85 *50:8 *105:74 2.28428e-05
86 *59:12 *395:A2_N 0.000304387
87 *63:50 *105:74 0.000146261
88 *63:78 *105:74 0.000459415
89 *65:8 *395:A2_N 4.82947e-05
90 *66:8 *105:108 0.000316184
91 *71:10 *105:108 0.000343777
92 *73:14 *422:A2 9.93733e-05
93 *73:14 *105:114 0.000340066
94 *84:20 *416:A2_N 0.000265453
95 *97:8 *395:A2_N 0.000129916
96 *103:29 *395:A2_N 0.000198705
97 *103:48 *433:A2_N 3.14048e-05
98 *103:50 *433:A2_N 0.000151333
99 *103:50 *105:114 0.000543443
100 *103:56 *422:A2 1.58163e-05
101 *103:56 *105:114 9.25014e-06
*RES
1 *394:Y *105:12 18.2545 
2 *105:12 *405:B 21.5038 
3 *105:12 *105:43 18.6154 
4 *105:43 *411:A2_N 9.83571 
5 *105:43 *416:A2_N 19.0321 
6 *394:Y *105:74 31.5946 
7 *105:74 *395:A2_N 30.2911 
8 *105:74 *105:99 4.77679 
9 *105:99 *443:B 9.3 
10 *105:99 *105:108 16.9464 
11 *105:108 *105:114 12.1429 
12 *105:114 *422:A2 40.6036 
13 *105:114 *427:A2_N 9.3 
14 *105:108 *433:A2_N 17.6036 
*END

*D_NET *106 0.00059837
*CONN
*I *398:C I *D sky130_fd_sc_hd__or4b_4
*I *395:X O *D sky130_fd_sc_hd__a2bb2o_2
*CAP
1 *398:C 0.00016581
2 *395:X 0.00016581
3 *398:C *384:B 0.000186669
4 *396:A *398:C 0
5 *459:A *398:C 8.00806e-05
*RES
1 *395:X *398:C 30.4036 
*END

*D_NET *107 0.00253311
*CONN
*I *397:C I *D sky130_fd_sc_hd__and3_4
*I *402:A I *D sky130_fd_sc_hd__and3_4
*I *396:Y O *D sky130_fd_sc_hd__nor2_2
*CAP
1 *397:C 0.000264707
2 *402:A 0.000290239
3 *396:Y 0
4 *107:4 0.000554946
5 *397:C *390:A2 9.41642e-05
6 *397:C *398:B 2.14757e-05
7 *397:C *109:12 0.000173141
8 *402:A *402:B 9.56968e-05
9 *402:A *151:12 8.99056e-05
10 *402:A *161:16 0.000153054
11 *390:A1 *397:C 1.58163e-05
12 *398:A *402:A 8.02593e-05
13 *398:D_N *397:C 0.00014285
14 *459:A *397:C 0
15 *459:A *402:A 0.000556852
*RES
1 *396:Y *107:4 9.3 
2 *107:4 *402:A 27.5857 
3 *107:4 *397:C 23.9786 
*END

*D_NET *108 0.000423587
*CONN
*I *398:B I *D sky130_fd_sc_hd__or4b_4
*I *397:X O *D sky130_fd_sc_hd__and3_4
*CAP
1 *398:B 0.000140261
2 *397:X 0.000140261
3 *398:B *109:12 6.4443e-05
4 *397:C *398:B 2.14757e-05
5 *398:D_N *398:B 5.71472e-05
*RES
1 *397:X *398:B 21.6179 
*END

*D_NET *109 0.0035492
*CONN
*I *401:A1 I *D sky130_fd_sc_hd__a21o_2
*I *485:A I *D sky130_fd_sc_hd__buf_6
*I *400:B1 I *D sky130_fd_sc_hd__o21a_4
*I *398:X O *D sky130_fd_sc_hd__or4b_4
*CAP
1 *401:A1 0.00010365
2 *485:A 5.33308e-05
3 *400:B1 0
4 *398:X 0.000535399
5 *109:19 0.000300795
6 *109:12 0.000679214
7 *401:A1 *161:42 5.82318e-05
8 *485:A *393:A1 0.000200413
9 *109:12 *399:B 0.000173097
10 *109:19 *449:B1 4.87854e-05
11 *109:19 *480:A 0.000131297
12 *109:19 *161:42 2.77258e-05
13 *397:C *109:12 0.000173141
14 *398:B *109:12 6.4443e-05
15 *398:D_N *109:12 7.25104e-05
16 *401:A2 *401:A1 3.50166e-05
17 *459:A *109:12 0
18 *63:84 *401:A1 0.000264755
19 *63:84 *109:19 0.000426985
20 *103:16 *485:A 0.000200413
*RES
1 *398:X *109:12 26.6036 
2 *109:12 *400:B1 9.3 
3 *109:12 *109:19 4.23214 
4 *109:19 *485:A 20.8536 
5 *109:19 *401:A1 12.3179 
*END

*D_NET *110 0.000695983
*CONN
*I *402:B I *D sky130_fd_sc_hd__and3_4
*I *399:Y O *D sky130_fd_sc_hd__nand2_2
*CAP
1 *402:B 0.000157558
2 *399:Y 0.000157558
3 *402:B *481:A 7.16452e-05
4 *402:B *151:12 0.000204274
5 *402:A *402:B 9.56968e-05
6 *459:A *402:B 9.25171e-06
*RES
1 *399:Y *402:B 31.9214 
*END

*D_NET *111 0.00254113
*CONN
*I *402:C I *D sky130_fd_sc_hd__and3_4
*I *401:X O *D sky130_fd_sc_hd__a21o_2
*CAP
1 *402:C 0.000645867
2 *401:X 0.000645867
3 *402:C *393:A1 0.00031275
4 *402:C *404:A1 5.4959e-05
5 *402:C *407:A1 0.000425944
6 *402:C *131:10 0.000315179
7 *392:B1 *402:C 6.82998e-05
8 *404:B1 *402:C 7.22686e-05
*RES
1 *401:X *402:C 42.6714 
*END

*D_NET *112 0.00163333
*CONN
*I *404:B2 I *D sky130_fd_sc_hd__o22a_2
*I *403:Y O *D sky130_fd_sc_hd__a221oi_2
*CAP
1 *404:B2 0.000487304
2 *403:Y 0.000487304
3 *404:B2 *404:A2 5.83768e-05
4 *404:B2 *405:A 1.98839e-05
5 *404:B2 *132:51 0.000184503
6 *404:B2 *134:27 0.000311517
7 *404:B2 *134:31 2.60673e-05
8 *100:46 *404:B2 5.83768e-05
*RES
1 *403:Y *404:B2 35.1179 
*END

*D_NET *113 0.00254025
*CONN
*I *407:A1 I *D sky130_fd_sc_hd__o32a_2
*I *404:X O *D sky130_fd_sc_hd__o22a_2
*CAP
1 *407:A1 0.000512837
2 *404:X 0.000512837
3 *407:A1 *404:A1 0.000100165
4 *407:A1 *131:10 0.000309713
5 *407:A1 *134:27 0.000238873
6 *407:A1 *151:12 0.000150043
7 *407:A1 *151:14 0.000192267
8 *402:C *407:A1 0.000425944
9 *404:B1 *407:A1 9.75679e-05
*RES
1 *404:X *407:A1 39.6357 
*END

*D_NET *114 0.000676036
*CONN
*I *407:A2 I *D sky130_fd_sc_hd__o32a_2
*I *405:Y O *D sky130_fd_sc_hd__nor2_2
*CAP
1 *407:A2 0.000188234
2 *405:Y 0.000188234
3 *407:A2 *137:12 0.000136727
4 *407:A2 *148:26 1.90223e-05
5 *460:A *407:A2 0.000143819
*RES
1 *405:Y *407:A2 32.1357 
*END

*D_NET *115 0.00117315
*CONN
*I *407:A3 I *D sky130_fd_sc_hd__o32a_2
*I *406:X O *D sky130_fd_sc_hd__a31o_2
*CAP
1 *407:A3 0.000188975
2 *406:X 0.000188975
3 *407:A3 *132:30 5.33005e-05
4 *407:A3 *134:8 2.19818e-05
5 *407:A3 *137:12 0.000471384
6 *407:B1 *407:A3 5.49995e-05
7 *460:A *407:A3 8.74791e-05
8 *462:A *407:A3 4.25594e-05
9 *105:43 *407:A3 6.34961e-05
*RES
1 *406:X *407:A3 33.2607 
*END

*D_NET *116 0.000426156
*CONN
*I *409:B1 I *D sky130_fd_sc_hd__o21a_2
*I *408:Y O *D sky130_fd_sc_hd__a21oi_2
*CAP
1 *409:B1 5.83489e-05
2 *408:Y 5.83489e-05
3 *409:B1 *412:A 5.04589e-05
4 *409:B1 *135:8 4.88637e-05
5 *408:A1 *409:B1 1.98839e-05
6 *408:B1 *409:B1 5.33005e-05
7 *409:A2 *409:B1 9.60875e-05
8 *87:21 *409:B1 4.08637e-05
*RES
1 *408:Y *409:B1 20.7786 
*END

*D_NET *117 0.00320383
*CONN
*I *412:A I *D sky130_fd_sc_hd__or3_2
*I *409:X O *D sky130_fd_sc_hd__o21a_2
*CAP
1 *412:A 0.00104965
2 *409:X 0.00104965
3 *412:A *367:B 0
4 *412:A *376:A2 0
5 *412:A *412:B 0
6 *412:A *415:A1 0.000572972
7 *412:A *135:8 8.27184e-06
8 *412:A *146:10 4.46186e-06
9 *412:A *146:21 0.000103599
10 *408:A1 *412:A 0.000221634
11 *408:B1 *412:A 1.21289e-05
12 *409:B1 *412:A 5.04589e-05
13 *417:B1 *412:A 2.62951e-05
14 *88:14 *412:A 5.33614e-05
15 *88:29 *412:A 5.13496e-05
*RES
1 *409:X *412:A 43.1714 
*END

*D_NET *118 0.00312825
*CONN
*I *412:B I *D sky130_fd_sc_hd__or3_2
*I *410:X O *D sky130_fd_sc_hd__o211a_2
*CAP
1 *412:B 0.00104223
2 *410:X 0.00104223
3 *412:B *373:B 0.00014101
4 *412:B *410:B1 0.000158748
5 *412:B *410:C1 0
6 *412:B *417:A1 5.59013e-05
7 *412:B *447:B 9.15842e-06
8 *412:B *447:C 2.3902e-05
9 *412:B *475:A 9.58387e-05
10 *412:B *135:27 5.47476e-06
11 *412:B *138:6 9.99853e-05
12 *411:B1 *412:B 0.000307343
13 *411:B2 *412:B 0.000137983
14 *412:A *412:B 0
15 *416:A2_N *412:B 8.43535e-06
*RES
1 *410:X *412:B 42.9929 
*END

*D_NET *119 0.00203365
*CONN
*I *412:C I *D sky130_fd_sc_hd__or3_2
*I *411:X O *D sky130_fd_sc_hd__a2bb2o_2
*CAP
1 *412:C 0.000568402
2 *411:X 0.000568402
3 *412:C *376:A1 1.1311e-05
4 *412:C *474:A 0.000354003
5 *412:C *138:6 4.7812e-05
6 *412:C *162:6 1.40415e-05
7 *373:A_N *412:C 8.00806e-05
8 *376:B1 *412:C 2.87584e-05
9 *84:20 *412:C 0.000264755
10 *87:12 *412:C 9.60875e-05
11 *105:43 *412:C 0
*RES
1 *411:X *412:C 37.9571 
*END

*D_NET *120 0.00149879
*CONN
*I *414:B1 I *D sky130_fd_sc_hd__o21a_2
*I *413:Y O *D sky130_fd_sc_hd__a21oi_2
*CAP
1 *414:B1 0.000148979
2 *413:Y 0.000148979
3 *414:B1 *415:A1 0.000133422
4 *414:B1 *415:A3 0.000352414
5 *414:B1 *417:A1 3.93137e-05
6 *414:B1 *417:A2 0.000184246
7 *413:A2 *414:B1 9.83388e-05
8 *88:29 *414:B1 0.000393096
*RES
1 *413:Y *414:B1 25.2964 
*END

*D_NET *121 0.00167048
*CONN
*I *417:A1 I *D sky130_fd_sc_hd__o32a_2
*I *414:X O *D sky130_fd_sc_hd__o21a_2
*CAP
1 *417:A1 0.000462033
2 *414:X 0.000462033
3 *417:A1 *417:A2 0.000305893
4 *417:A1 *475:A 3.48139e-05
5 *412:B *417:A1 5.59013e-05
6 *414:B1 *417:A1 3.93137e-05
7 *88:29 *417:A1 0.000310489
*RES
1 *414:X *417:A1 34.7071 
*END

*D_NET *122 0.000777355
*CONN
*I *417:A2 I *D sky130_fd_sc_hd__o32a_2
*I *415:X O *D sky130_fd_sc_hd__a31o_2
*CAP
1 *417:A2 0.000138589
2 *415:X 0.000138589
3 *417:A2 *475:A 1.00375e-05
4 *414:B1 *417:A2 0.000184246
5 *417:A1 *417:A2 0.000305893
*RES
1 *415:X *417:A2 31.3143 
*END

*D_NET *123 0.000557743
*CONN
*I *417:A3 I *D sky130_fd_sc_hd__o32a_2
*I *416:X O *D sky130_fd_sc_hd__a2bb2o_2
*CAP
1 *417:A3 5.80905e-05
2 *416:X 5.80905e-05
3 *417:A3 *417:B2 0.000185118
4 *411:B1 *417:A3 0.000232779
5 *416:A2_N *417:A3 2.36643e-05
*RES
1 *416:X *417:A3 21.2071 
*END

*D_NET *124 0.00393484
*CONN
*I *405:A I *D sky130_fd_sc_hd__nor2_2
*I *375:B I *D sky130_fd_sc_hd__nand2_2
*I *406:A3 I *D sky130_fd_sc_hd__a31o_2
*I *404:A2 I *D sky130_fd_sc_hd__o22a_2
*I *403:B2 I *D sky130_fd_sc_hd__a221oi_2
*I *407:B2 I *D sky130_fd_sc_hd__o32a_2
*I *452:X O *D sky130_fd_sc_hd__clkdlybuf4s25_1
*CAP
1 *405:A 8.18531e-05
2 *375:B 0
3 *406:A3 0.000107211
4 *404:A2 0.000179689
5 *403:B2 0.000104281
6 *407:B2 0
7 *452:X 0.000144107
8 *124:49 0.000303476
9 *124:36 0.000468597
10 *124:23 0.000223195
11 *124:10 0.000252231
12 *403:B2 *134:31 3.08382e-06
13 *404:A2 *404:A1 0
14 *405:A *134:27 5.50052e-05
15 *406:A3 *375:A 4.45753e-05
16 *406:A3 *447:A 7.4854e-05
17 *406:A3 *151:52 3.14003e-05
18 *406:A3 *151:63 5.33005e-05
19 *406:A3 *162:27 5.50052e-05
20 *124:10 *403:B1 0.000119316
21 *124:10 *410:A1 3.21381e-05
22 *124:10 *134:27 2.58472e-05
23 *124:10 *151:33 4.3304e-06
24 *124:23 *403:B1 0.000167586
25 *124:23 *134:27 0.000102948
26 *124:23 *148:26 9.58689e-05
27 *124:36 *134:27 3.90388e-05
28 *124:36 *134:31 0.000140243
29 *124:36 *134:40 4.08637e-05
30 *124:36 *148:26 0.000293872
31 *124:49 *148:26 0.000100248
32 result[0] *124:10 5.50052e-05
33 *404:B2 *404:A2 5.83768e-05
34 *404:B2 *405:A 1.98839e-05
35 *405:B *405:A 8.8175e-05
36 *405:B *124:23 8.6229e-06
37 *407:B1 *404:A2 0
38 *100:46 *404:A2 0
39 *100:46 *406:A3 0.000146261
40 *100:46 *124:49 0.000180235
41 *105:43 *406:A3 6.93626e-06
42 *105:43 *124:36 1.90936e-05
43 *105:43 *124:49 8.08608e-06
*RES
1 *452:X *124:10 16.3893 
2 *124:10 *407:B2 13.8 
3 *124:10 *124:23 7.69643 
4 *124:23 *403:B2 9.72857 
5 *124:23 *124:36 7.77679 
6 *124:36 *404:A2 16.8089 
7 *124:36 *124:49 3.75893 
8 *124:49 *406:A3 17.1036 
9 *124:49 *375:B 13.8 
10 *403:B2 *405:A 20.3679 
*END

*D_NET *125 0.00124823
*CONN
*I *410:A2 I *D sky130_fd_sc_hd__o211a_2
*I *372:A I *D sky130_fd_sc_hd__xor2_2
*I *453:X O *D sky130_fd_sc_hd__clkdlybuf4s25_1
*CAP
1 *410:A2 0.00026449
2 *372:A 0.000211003
3 *453:X 0.000120671
4 *125:8 0.000596164
5 *372:A *372:B 0
6 *410:A2 *372:B 0
7 *410:A2 *410:C1 5.59013e-05
*RES
1 *453:X *125:8 15.1571 
2 *125:8 *372:A 17.4964 
3 *125:8 *410:A2 18.175 
*END

*D_NET *126 0.00220934
*CONN
*I *415:A3 I *D sky130_fd_sc_hd__a31o_2
*I *367:A I *D sky130_fd_sc_hd__xor2_2
*I *454:X O *D sky130_fd_sc_hd__clkdlybuf4s25_1
*CAP
1 *415:A3 0.000221795
2 *367:A 0.000254735
3 *454:X 0.000146252
4 *126:10 0.000622782
5 *415:A3 *367:B 4.45908e-05
6 *415:A3 *415:A1 9.71197e-05
7 *368:A *415:A3 1.76135e-05
8 *368:A *126:10 9.94443e-05
9 *381:A3 *415:A3 1.24368e-05
10 *414:B1 *415:A3 0.000352414
11 *415:B1 *415:A3 0.00019789
12 *61:10 *415:A3 0.000103993
13 *88:29 *415:A3 3.8274e-05
*RES
1 *454:X *126:10 16.0857 
2 *126:10 *367:A 17.6393 
3 *126:10 *415:A3 20.8893 
*END

*D_NET *127 0.00206426
*CONN
*I *366:A I *D sky130_fd_sc_hd__xor2_2
*I *421:A3 I *D sky130_fd_sc_hd__a31oi_2
*I *455:X O *D sky130_fd_sc_hd__clkdlybuf4s25_1
*CAP
1 *366:A 0.000473286
2 *421:A3 2.23854e-05
3 *455:X 0.000396497
4 *127:6 0.000892168
5 *366:A *366:B 0
6 *127:6 *421:A1 5.52238e-05
7 *127:6 *421:A2 6.12434e-05
8 result[3] *366:A 0
9 *421:B1 *127:6 0.000149489
10 *422:C1 *127:6 1.39726e-05
*RES
1 *455:X *127:6 15.9964 
2 *127:6 *421:A3 9.72857 
3 *127:6 *366:A 26.3536 
*END

*D_NET *128 0.00151763
*CONN
*I *362:A I *D sky130_fd_sc_hd__xor2_2
*I *426:A3 I *D sky130_fd_sc_hd__a31o_2
*I *456:X O *D sky130_fd_sc_hd__clkdlybuf4s25_1
*CAP
1 *362:A 0.000243963
2 *426:A3 7.26511e-05
3 *456:X 0.000100347
4 *128:6 0.000416961
5 *362:A *362:B 1.68581e-05
6 *362:A *448:C1 0.000269548
7 *426:A3 *149:18 0.000124749
8 *426:A3 *158:21 0.000148514
9 *128:6 *448:C1 0.0001123
10 *73:14 *362:A 1.17407e-05
*RES
1 *456:X *128:6 10.6571 
2 *128:6 *426:A3 20.2464 
3 *128:6 *362:A 13.5679 
*END

*D_NET *129 0.00164133
*CONN
*I *356:A I *D sky130_fd_sc_hd__xor2_2
*I *434:A3 I *D sky130_fd_sc_hd__a311o_2
*I *457:X O *D sky130_fd_sc_hd__clkdlybuf4s25_1
*CAP
1 *356:A 0
2 *434:A3 0.000204915
3 *457:X 0.000466056
4 *129:10 0.000670971
5 *434:A3 *149:10 0
6 *434:A3 *159:31 0.00013248
7 *358:A_N *434:A3 0
8 *358:B *434:A3 1.98839e-05
9 *430:A *434:A3 0
10 *434:B1 *434:A3 5.52302e-05
11 *435:B1 *434:A3 5.52238e-05
12 *457:A *129:10 2.27416e-05
13 *67:10 *434:A3 0
14 *103:48 *434:A3 1.38323e-05
*RES
1 *457:X *129:10 19.675 
2 *129:10 *434:A3 17.7107 
3 *129:10 *356:A 13.8 
*END

*D_NET *130 0.000932926
*CONN
*I *442:A3 I *D sky130_fd_sc_hd__a31o_2
*I *354:A I *D sky130_fd_sc_hd__xor2_2
*I *458:X O *D sky130_fd_sc_hd__clkdlybuf4s25_1
*CAP
1 *442:A3 3.63315e-05
2 *354:A 0.000145238
3 *458:X 0.000121718
4 *130:8 0.000303288
5 *354:A *150:24 0
6 *354:A *150:33 0
7 *442:A3 *385:A 7.57394e-05
8 *442:A3 *442:A1 9.99853e-05
9 *442:B1 *354:A 0.000150625
*RES
1 *458:X *130:8 15.7464 
2 *130:8 *354:A 16.7107 
3 *130:8 *442:A3 15.1571 
*END

*D_NET *131 0.00538007
*CONN
*I *384:B I *D sky130_fd_sc_hd__xnor2_2
*I *393:A3 I *D sky130_fd_sc_hd__a31o_2
*I *459:X O *D sky130_fd_sc_hd__clkdlybuf4s25_1
*CAP
1 *384:B 0.000741974
2 *393:A3 1.69531e-05
3 *459:X 0.000674238
4 *131:10 0.00143316
5 *384:B *384:A 2.89016e-05
6 *384:B *393:A2 5.41794e-05
7 *384:B *395:A1_N 0.000201561
8 *384:B *479:A 0
9 *393:A3 *393:A1 5.33005e-05
10 *131:10 *393:A1 0.000153486
11 *131:10 *393:A2 0.000220448
12 *359:A2 *384:B 0
13 *392:A2 *131:10 9.15842e-06
14 *392:B1 *131:10 3.64864e-05
15 *395:A2_N *384:B 0.000263792
16 *398:C *384:B 0.000186669
17 *402:C *131:10 0.000315179
18 *404:B1 *131:10 2.12647e-05
19 *407:A1 *131:10 0.000309713
20 *437:A *384:B 0
21 *442:B1 *384:B 0.000324957
22 *442:B1 *393:A3 5.33005e-05
23 *442:B1 *131:10 3.34366e-05
24 *449:A2 *131:10 0
25 *97:8 *384:B 0.000150336
26 *103:16 *131:10 9.75679e-05
*RES
1 *459:X *131:10 27.175 
2 *131:10 *393:A3 14.3357 
3 *131:10 *384:B 28.8714 
*END

*D_NET *132 0.00303504
*CONN
*I *394:B I *D sky130_fd_sc_hd__nand3b_2
*I *391:C I *D sky130_fd_sc_hd__and3b_2
*I *353:C_N I *D sky130_fd_sc_hd__or3b_4
*I *387:B I *D sky130_fd_sc_hd__nor2_2
*I *403:A2 I *D sky130_fd_sc_hd__a221oi_2
*I *460:X O *D sky130_fd_sc_hd__clkbuf_2
*CAP
1 *394:B 0.00020435
2 *391:C 0
3 *353:C_N 2.615e-05
4 *387:B 0
5 *403:A2 0.000188909
6 *460:X 0.000361541
7 *132:51 0.00029873
8 *132:30 0.000293162
9 *353:C_N *148:26 7.09928e-05
10 *394:B *394:C 5.46383e-06
11 *394:B *134:40 0.000121271
12 *394:B *134:49 4.97967e-05
13 *403:A2 *404:A1 0.000119681
14 *403:A2 *137:12 5.49995e-05
15 *132:30 *375:A 7.95603e-05
16 *132:30 *387:A 5.50052e-05
17 *132:30 *134:8 6.57032e-05
18 *132:30 *148:26 0.000396591
19 *132:51 *391:A_N 1.02301e-05
20 *132:51 *134:27 1.87331e-05
21 *132:51 *134:31 3.39873e-05
22 *132:51 *134:40 0.000103473
23 *404:B2 *132:51 0.000184503
24 *406:B1 *353:C_N 7.8195e-05
25 *406:B1 *132:30 3.951e-05
26 *407:A3 *132:30 5.33005e-05
27 *407:B1 *403:A2 0.000121204
*RES
1 *460:X *403:A2 29.7786 
2 *460:X *132:30 16.1571 
3 *132:30 *387:B 9.3 
4 *132:30 *353:C_N 10.6571 
5 *403:A2 *132:51 12.1125 
6 *132:51 *391:C 9.3 
7 *132:51 *394:B 12.9339 
*END

*D_NET *133 0.00274407
*CONN
*I *450:A I *D sky130_fd_sc_hd__buf_6
*I *451:A I *D sky130_fd_sc_hd__clkdlybuf4s25_1
*I *461:X O *D sky130_fd_sc_hd__buf_6
*CAP
1 *450:A 0
2 *451:A 0.000997835
3 *461:X 0.000193891
4 *133:6 0.00119173
5 *451:A *160:10 5.16852e-05
6 *133:6 *148:10 0.000144773
7 result[6] *451:A 5.45307e-05
8 *458:A *451:A 3.18676e-05
9 *468:A *451:A 7.77652e-05
*RES
1 *461:X *133:6 13.1214 
2 *133:6 *451:A 34.55 
3 *133:6 *450:A 9.3 
*END

*D_NET *134 0.00779573
*CONN
*I *403:A1 I *D sky130_fd_sc_hd__a221oi_2
*I *388:A I *D sky130_fd_sc_hd__nor2_2
*I *351:A I *D sky130_fd_sc_hd__and2_2
*I *352:A I *D sky130_fd_sc_hd__nand2_2
*I *389:A I *D sky130_fd_sc_hd__or2_2
*I *353:B I *D sky130_fd_sc_hd__or3b_4
*I *392:A1 I *D sky130_fd_sc_hd__a21o_2
*I *394:C I *D sky130_fd_sc_hd__nand3b_2
*I *391:A_N I *D sky130_fd_sc_hd__and3b_2
*I *410:A1 I *D sky130_fd_sc_hd__o211a_2
*I *462:X O *D sky130_fd_sc_hd__clkbuf_2
*CAP
1 *403:A1 0
2 *388:A 0.00011126
3 *351:A 0
4 *352:A 7.43125e-05
5 *389:A 6.77411e-05
6 *353:B 0
7 *392:A1 9.58814e-05
8 *394:C 2.07458e-05
9 *391:A_N 1.45547e-05
10 *410:A1 0.000283482
11 *462:X 0.000363865
12 *134:83 0.000233657
13 *134:75 0.000357141
14 *134:68 0.000381616
15 *134:49 0.000387837
16 *134:40 0.000221862
17 *134:31 0.000197792
18 *134:27 0.000279265
19 *134:8 0.000879873
20 *352:A *389:B 4.17702e-05
21 *388:A *351:B 8.43386e-05
22 *388:A *149:36 9.75253e-05
23 *389:A *389:B 0.000140985
24 *410:A1 *372:B 0.000165501
25 *410:A1 *410:B1 8.39413e-05
26 *410:A1 *410:C1 0.000168862
27 *410:A1 *151:14 9.81902e-05
28 *134:27 *403:B1 1.13961e-05
29 *134:27 *148:26 6.92966e-06
30 *134:27 *151:14 1.7619e-05
31 *134:40 *351:B 2.85321e-05
32 *134:40 *391:B 0.000117381
33 *134:40 *148:26 4.51148e-05
34 *134:49 *351:B 9.02917e-05
35 *134:68 *351:B 0.000103558
36 *134:75 *351:B 9.67754e-05
37 *134:83 *351:B 1.46689e-05
38 *134:83 *147:12 1.26392e-05
39 *134:83 *149:36 0.000101178
40 *373:A_N *410:A1 0
41 *392:A2 *392:A1 7.02461e-05
42 *394:B *394:C 5.46383e-06
43 *394:B *134:40 0.000121271
44 *394:B *134:49 4.97967e-05
45 *403:B2 *134:31 3.08382e-06
46 *404:B2 *134:27 0.000311517
47 *404:B2 *134:31 2.60673e-05
48 *405:A *134:27 5.50052e-05
49 *405:B *134:27 2.06791e-05
50 *406:B1 *134:75 7.06918e-05
51 *407:A1 *134:27 0.000238873
52 *407:A3 *134:8 2.19818e-05
53 *415:B1 *134:83 3.75868e-05
54 *448:D1 *134:68 0.000168469
55 *460:A *134:8 0.000267143
56 *62:43 *388:A 5.4959e-05
57 *63:8 *352:A 1.35465e-05
58 *63:50 *134:83 2.16482e-05
59 *64:8 *134:68 6.93626e-06
60 *105:74 *134:68 0.000119478
61 *124:10 *410:A1 3.21381e-05
62 *124:10 *134:27 2.58472e-05
63 *124:23 *134:27 0.000102948
64 *124:36 *134:27 3.90388e-05
65 *124:36 *134:31 0.000140243
66 *124:36 *134:40 4.08637e-05
67 *132:30 *134:8 6.57032e-05
68 *132:51 *391:A_N 1.02301e-05
69 *132:51 *134:27 1.87331e-05
70 *132:51 *134:31 3.39873e-05
71 *132:51 *134:40 0.000103473
*RES
1 *462:X *134:8 18.4429 
2 *134:8 *410:A1 21.0946 
3 *134:8 *134:27 11.6964 
4 *134:27 *134:31 1.78571 
5 *134:31 *391:A_N 9.72857 
6 *134:31 *134:40 4.23214 
7 *134:40 *394:C 9.72857 
8 *134:40 *134:49 1.76786 
9 *134:49 *392:A1 20.2464 
10 *134:49 *134:68 14.25 
11 *134:68 *353:B 9.3 
12 *134:68 *134:75 3 
13 *134:75 *134:83 11.375 
14 *134:83 *389:A 10.6571 
15 *134:83 *352:A 10.675 
16 *134:75 *351:A 9.3 
17 *134:75 *388:A 12.3179 
18 *134:27 *403:A1 9.3 
*END

*D_NET *135 0.00512615
*CONN
*I *373:B I *D sky130_fd_sc_hd__and2b_2
*I *411:A1_N I *D sky130_fd_sc_hd__a2bb2o_2
*I *410:B1 I *D sky130_fd_sc_hd__o211a_2
*I *374:B I *D sky130_fd_sc_hd__xnor2_2
*I *463:X O *D sky130_fd_sc_hd__clkdlybuf4s25_1
*CAP
1 *373:B 0.000436415
2 *411:A1_N 0
3 *410:B1 0.000230413
4 *374:B 0.000170835
5 *463:X 0.000382388
6 *135:27 0.000413535
7 *135:23 0.000705764
8 *135:8 0.000639449
9 *373:B *447:B 2.59355e-05
10 *373:B *447:C 6.70234e-05
11 *373:B *474:A 8.83171e-05
12 *410:B1 *410:C1 0.000115857
13 *135:23 *415:A1 1.17968e-05
14 *373:A_N *373:B 1.3701e-05
15 *373:A_N *135:23 0
16 *377:A2 *374:B 0.000216297
17 *409:A2 *135:8 9.60875e-05
18 *409:B1 *135:8 4.88637e-05
19 *410:A1 *410:B1 8.39413e-05
20 *411:A2_N *135:27 2.89016e-05
21 *411:B2 *374:B 1.08359e-05
22 *411:B2 *135:23 4.33438e-05
23 *411:B2 *135:27 0
24 *412:A *135:8 8.27184e-06
25 *412:B *373:B 0.00014101
26 *412:B *410:B1 0.000158748
27 *412:B *135:27 5.47476e-06
28 *416:A2_N *373:B 7.80417e-05
29 *416:A2_N *135:27 2.59355e-05
30 *84:20 *373:B 0.00026353
31 *84:20 *374:B 0.000238762
32 *84:20 *135:23 0.000170661
33 *85:8 *374:B 9.60939e-05
34 *87:21 *135:8 5.33005e-05
35 *105:43 *135:23 5.66157e-05
*RES
1 *463:X *135:8 18.4429 
2 *135:8 *374:B 18.3179 
3 *135:8 *135:23 7.05357 
4 *135:23 *135:27 2.59821 
5 *135:27 *410:B1 14.5768 
6 *135:27 *411:A1_N 9.3 
7 *135:23 *373:B 25.4429 
*END

*D_NET *136 0.000874242
*CONN
*I *472:A I *D sky130_fd_sc_hd__buf_8
*I *402:X O *D sky130_fd_sc_hd__and3_4
*CAP
1 *472:A 0.000330425
2 *402:X 0.000330425
3 *472:A *148:26 0.000213391
4 result[7] *472:A 0
*RES
1 *402:X *472:A 35.0107 
*END

*D_NET *137 0.00266688
*CONN
*I *473:A I *D sky130_fd_sc_hd__clkdlybuf4s25_1
*I *447:A I *D sky130_fd_sc_hd__or3_2
*I *407:X O *D sky130_fd_sc_hd__o32a_2
*CAP
1 *473:A 0
2 *447:A 0.000152085
3 *407:X 0.000336751
4 *137:12 0.000488836
5 *447:A *376:A2 0.00039236
6 *447:A *151:33 6.62058e-05
7 *447:A *151:63 9.85599e-06
8 *447:A *162:27 4.4545e-05
9 *137:12 *404:A1 0.000166716
10 *137:12 *162:10 5.74242e-05
11 *403:A2 *137:12 5.49995e-05
12 *406:A3 *447:A 7.4854e-05
13 *406:B1 *447:A 0.000139344
14 *407:A2 *137:12 0.000136727
15 *407:A3 *137:12 0.000471384
16 *460:A *137:12 9.86486e-06
17 *100:16 *447:A 4.37451e-05
18 *105:43 *137:12 2.11855e-05
*RES
1 *407:X *137:12 25.8 
2 *137:12 *447:A 14.7821 
3 *137:12 *473:A 9.3 
*END

*D_NET *138 0.00215418
*CONN
*I *447:B I *D sky130_fd_sc_hd__or3_2
*I *474:A I *D sky130_fd_sc_hd__clkdlybuf4s25_1
*I *412:X O *D sky130_fd_sc_hd__or3_2
*CAP
1 *447:B 0.00014848
2 *474:A 0.000252805
3 *412:X 0.000145254
4 *138:6 0.000546539
5 *447:B *447:C 3.75959e-05
6 *474:A *376:A1 6.18766e-05
7 *373:A_N *447:B 0
8 *373:A_N *474:A 0.00021645
9 *373:B *447:B 2.59355e-05
10 *373:B *474:A 8.83171e-05
11 *376:B1 *474:A 9.71197e-05
12 *412:B *447:B 9.15842e-06
13 *412:B *138:6 9.99853e-05
14 *412:C *474:A 0.000354003
15 *412:C *138:6 4.7812e-05
16 *87:12 *474:A 2.28499e-05
*RES
1 *412:X *138:6 12.3 
2 *138:6 *474:A 17.425 
3 *138:6 *447:B 20.7107 
*END

*D_NET *139 0.00153896
*CONN
*I *447:C I *D sky130_fd_sc_hd__or3_2
*I *475:A I *D sky130_fd_sc_hd__clkdlybuf4s25_1
*I *417:X O *D sky130_fd_sc_hd__o32a_2
*CAP
1 *447:C 0.000239852
2 *475:A 0.000253388
3 *417:X 0
4 *139:6 0.00049324
5 *373:B *447:C 6.70234e-05
6 *376:B1 *447:C 9.93368e-05
7 *406:B1 *447:C 9.15842e-06
8 *412:B *447:C 2.3902e-05
9 *412:B *475:A 9.58387e-05
10 *413:A1 *475:A 0
11 *417:A1 *475:A 3.48139e-05
12 *417:A2 *475:A 1.00375e-05
13 *447:B *447:C 3.75959e-05
14 *84:20 *447:C 8.98585e-05
15 *84:20 *475:A 9.25014e-06
16 *87:12 *447:C 5.27703e-06
17 *87:12 *475:A 7.03856e-05
18 *88:14 *475:A 0
19 *88:29 *475:A 0
*RES
1 *417:X *139:6 13.8 
2 *139:6 *475:A 19.0857 
3 *139:6 *447:C 18.4786 
*END

*D_NET *140 0.0038732
*CONN
*I *476:A I *D sky130_fd_sc_hd__clkdlybuf4s25_1
*I *448:B1 I *D sky130_fd_sc_hd__a2111o_2
*I *423:X O *D sky130_fd_sc_hd__o2bb2a_2
*CAP
1 *476:A 0.000120944
2 *448:B1 0.000594935
3 *423:X 0
4 *140:4 0.000715879
5 *448:B1 *362:B 0.00037194
6 *448:B1 *366:B 5.76296e-05
7 *448:B1 *421:A1 0.000404614
8 *448:B1 *448:C1 0.000498296
9 *448:B1 *477:A 0.000359584
10 *448:B1 *141:8 4.66056e-05
11 *448:B1 *157:16 7.80403e-05
12 *476:A *423:B2 0
13 *422:A2 *448:B1 3.61589e-06
14 *422:B2 *448:B1 1.91418e-05
15 *423:A1_N *448:B1 0.000322029
16 *423:A2_N *448:B1 2.51343e-06
17 *428:A2 *448:B1 5.06378e-05
18 *448:A2 *448:B1 0.000137639
19 *456:A *448:B1 8.91561e-05
*RES
1 *423:X *140:4 9.3 
2 *140:4 *448:B1 37.1393 
3 *140:4 *476:A 11.3893 
*END

*D_NET *141 0.00318077
*CONN
*I *448:C1 I *D sky130_fd_sc_hd__a2111o_2
*I *477:A I *D sky130_fd_sc_hd__clkdlybuf4s25_1
*I *428:X O *D sky130_fd_sc_hd__o32a_2
*CAP
1 *448:C1 0.000332333
2 *477:A 0.000205256
3 *428:X 9.92079e-05
4 *141:8 0.000636796
5 *448:C1 *362:B 2.08721e-05
6 *477:A *366:B 0.000360183
7 *141:8 *366:B 3.14003e-05
8 *362:A *448:C1 0.000269548
9 *422:A2 *141:8 4.27842e-06
10 *428:A2 *141:8 2.20569e-05
11 *448:A2 *448:C1 1.98839e-05
12 *448:B1 *448:C1 0.000498296
13 *448:B1 *477:A 0.000359584
14 *448:B1 *141:8 4.66056e-05
15 *73:14 *141:8 7.74135e-05
16 *103:56 *477:A 7.22686e-05
17 *103:56 *141:8 1.24912e-05
18 *128:6 *448:C1 0.0001123
*RES
1 *428:X *141:8 15.7464 
2 *141:8 *477:A 20.2464 
3 *141:8 *448:C1 21.4607 
*END

*D_NET *142 0.00218399
*CONN
*I *478:A I *D sky130_fd_sc_hd__dlymetal6s2s_1
*I *436:X O *D sky130_fd_sc_hd__and2_2
*CAP
1 *478:A 0.000347458
2 *436:X 0.000347458
3 *478:A *429:A 0.000264421
4 *478:A *149:18 0.000359586
5 *478:A *158:21 9.25014e-06
6 *478:A *158:34 4.97121e-06
7 *365:A *478:A 5.33005e-05
8 *383:A2 *478:A 4.56437e-05
9 *428:A1 *478:A 2.24804e-05
10 *428:A3 *478:A 6.30388e-05
11 *428:B1 *478:A 0.000464925
12 *432:A3 *478:A 2.59355e-05
13 *76:16 *478:A 0.000175526
*RES
1 *436:X *478:A 38.6893 
*END

*D_NET *143 0.00147599
*CONN
*I *479:A I *D sky130_fd_sc_hd__dlymetal6s2s_1
*I *446:X O *D sky130_fd_sc_hd__and2_2
*CAP
1 *479:A 0.000482664
2 *446:X 0.000482664
3 *359:A2 *479:A 0.000170955
4 *384:B *479:A 0
5 *437:A *479:A 3.5848e-05
6 *438:B *479:A 0.000194484
7 *59:12 *479:A 5.2781e-05
8 *62:73 *479:A 5.65955e-05
*RES
1 *446:X *479:A 37.0643 
*END

*D_NET *144 0.0022229
*CONN
*I *449:B1 I *D sky130_fd_sc_hd__a211oi_2
*I *480:A I *D sky130_fd_sc_hd__buf_6
*I *400:X O *D sky130_fd_sc_hd__o21a_4
*CAP
1 *449:B1 0.000157244
2 *480:A 0.000251608
3 *400:X 0
4 *144:4 0.000408852
5 *449:B1 *481:A 0.000137983
6 *449:B1 *161:42 8.27532e-05
7 *480:A *161:16 4.16984e-05
8 *480:A *161:27 2.89016e-05
9 *480:A *161:42 0.000431857
10 *390:B1 *449:B1 0.000148189
11 *449:C1 *449:B1 9.60875e-05
12 *63:84 *480:A 0.000111172
13 *103:16 *449:B1 0.000146474
14 *109:19 *449:B1 4.87854e-05
15 *109:19 *480:A 0.000131297
*RES
1 *400:X *144:4 9.3 
2 *144:4 *480:A 15.6036 
3 *144:4 *449:B1 22.9607 
*END

*D_NET *145 0.00142351
*CONN
*I *481:A I *D sky130_fd_sc_hd__buf_6
*I *449:Y O *D sky130_fd_sc_hd__a211oi_2
*CAP
1 *481:A 0.000503133
2 *449:Y 0.000503133
3 *481:A *399:B 9.90367e-05
4 *396:B *481:A 5.33433e-05
5 *398:D_N *481:A 5.52302e-05
6 *402:B *481:A 7.16452e-05
7 *449:B1 *481:A 0.000137983
*RES
1 *449:Y *481:A 26.9571 
*END

*D_NET *146 0.00318008
*CONN
*I *350:A I *D sky130_fd_sc_hd__inv_2
*I *416:A1_N I *D sky130_fd_sc_hd__a2bb2o_2
*I *417:B2 I *D sky130_fd_sc_hd__o32a_2
*I *415:A2 I *D sky130_fd_sc_hd__a31o_2
*I *464:X O *D sky130_fd_sc_hd__clkdlybuf4s25_1
*CAP
1 *350:A 0.000295342
2 *416:A1_N 0
3 *417:B2 5.51491e-05
4 *415:A2 3.78817e-05
5 *464:X 0.000344664
6 *146:25 6.19298e-05
7 *146:21 0.000501537
8 *146:10 0.000581961
9 *350:A *372:B 4.55912e-06
10 *146:21 *367:B 0
11 *411:B1 *350:A 7.43238e-05
12 *411:B1 *417:B2 4.0003e-05
13 *411:B1 *146:25 4.32258e-06
14 *412:A *146:10 4.46186e-06
15 *412:A *146:21 0.000103599
16 *413:A1 *350:A 0.000177719
17 *415:B1 *350:A 1.90936e-05
18 *416:A2_N *417:B2 0.000165128
19 *416:A2_N *146:25 1.03742e-05
20 *416:B1 *350:A 2.59355e-05
21 *417:A3 *417:B2 0.000185118
22 *464:A *146:10 3.69047e-06
23 *82:31 *350:A 0.000154666
24 *88:14 *415:A2 6.12326e-06
25 *88:14 *146:10 0.0003225
*RES
1 *464:X *146:10 19.4429 
2 *146:10 *415:A2 14.3357 
3 *146:10 *146:21 3.16071 
4 *146:21 *146:25 4.71429 
5 *146:25 *417:B2 11.8 
6 *146:25 *416:A1_N 9.3 
7 *146:21 *350:A 22.4125 
*END

*D_NET *147 0.00566218
*CONN
*I *484:A I *D sky130_fd_sc_hd__buf_2
*I *488:A I *D sky130_fd_sc_hd__buf_2
*I *372:B I *D sky130_fd_sc_hd__xor2_2
*I *471:X O *D sky130_fd_sc_hd__buf_8
*CAP
1 *484:A 0.000191517
2 *488:A 0
3 *372:B 0.00192393
4 *471:X 0
5 *147:12 0.00236796
6 *147:6 0.000635551
7 *372:B *376:A2 1.01912e-05
8 *372:B *410:C1 1.46717e-05
9 *484:A *150:24 0
10 *147:12 *351:B 0.000147718
11 *147:12 *376:A2 8.7178e-05
12 *350:A *372:B 4.55912e-06
13 *372:A *372:B 0
14 *373:A_N *372:B 0
15 *377:A1 *372:B 0
16 *410:A1 *372:B 0.000165501
17 *410:A2 *372:B 0
18 *413:A1 *372:B 0
19 *415:B1 *147:12 0.000100767
20 *462:A *372:B 0
21 *83:8 *372:B 0
22 *134:83 *147:12 1.26392e-05
*RES
1 *471:X *147:6 13.8 
2 *147:6 *147:12 8.48214 
3 *147:12 *372:B 23.6374 
4 *147:12 *488:A 13.8 
5 *147:6 *484:A 16.8893 
*END

*D_NET *148 0.00636501
*CONN
*I *483:A I *D sky130_fd_sc_hd__buf_2
*I *353:A I *D sky130_fd_sc_hd__or3b_4
*I *450:X O *D sky130_fd_sc_hd__buf_6
*CAP
1 *483:A 0
2 *353:A 0
3 *450:X 0.00048036
4 *148:26 0.00143557
5 *148:10 0.00191593
6 *148:10 *161:8 0
7 *148:10 *161:16 0
8 *148:26 *151:12 0.000402771
9 *148:26 *151:14 2.72055e-05
10 *148:26 *161:16 0
11 overflow *148:26 0.000165157
12 *353:C_N *148:26 7.09928e-05
13 *385:B *148:10 0
14 *405:B *148:26 0.000221071
15 *406:B1 *148:26 5.40961e-05
16 *407:A2 *148:26 1.90223e-05
17 *460:A *148:26 0
18 *461:A *148:10 0.00024422
19 *472:A *148:26 0.000213391
20 *105:43 *148:26 3.18227e-05
21 *124:23 *148:26 9.58689e-05
22 *124:36 *148:26 0.000293872
23 *124:49 *148:26 0.000100248
24 *132:30 *148:26 0.000396591
25 *133:6 *148:10 0.000144773
26 *134:27 *148:26 6.92966e-06
27 *134:40 *148:26 4.51148e-05
*RES
1 *450:X *148:10 24.2107 
2 *148:10 *148:26 42.3571 
3 *148:26 *353:A 9.3 
4 *148:10 *483:A 13.8 
*END

*D_NET *149 0.0105528
*CONN
*I *442:A1 I *D sky130_fd_sc_hd__a31o_2
*I *434:A1 I *D sky130_fd_sc_hd__a311o_2
*I *421:A1 I *D sky130_fd_sc_hd__a31oi_2
*I *426:A1 I *D sky130_fd_sc_hd__a31o_2
*I *388:B I *D sky130_fd_sc_hd__nor2_2
*I *352:B I *D sky130_fd_sc_hd__nand2_2
*I *389:B I *D sky130_fd_sc_hd__or2_2
*I *451:X O *D sky130_fd_sc_hd__clkdlybuf4s25_1
*CAP
1 *442:A1 0.000317215
2 *434:A1 0
3 *421:A1 0.000267269
4 *426:A1 4.27904e-05
5 *388:B 0
6 *352:B 0
7 *389:B 8.75137e-05
8 *451:X 0.000829414
9 *149:36 0.000309688
10 *149:26 0.000500066
11 *149:20 0.000349011
12 *149:18 0.00102959
13 *149:10 0.0012462
14 *421:A1 *421:A2 5.33005e-05
15 *421:A1 *426:A2 2.74737e-05
16 *421:A1 *157:10 0.000240239
17 *421:A1 *157:16 3.23542e-05
18 *421:A1 *158:6 9.58689e-05
19 *426:A1 *426:A2 2.04681e-05
20 *442:A1 *356:B 0.000951499
21 *442:A1 *385:A 2.22011e-05
22 *442:A1 *442:A2 0.000207203
23 *442:A1 *160:23 0.000148105
24 *442:A1 *160:25 0.000124595
25 *149:10 *356:B 9.27866e-05
26 *149:18 *158:21 0.000116185
27 *149:18 *159:10 0
28 *149:20 *426:A2 4.93118e-06
29 *149:36 *351:B 5.33005e-05
30 *352:A *389:B 4.17702e-05
31 *383:A2 *149:18 6.53874e-05
32 *388:A *149:36 9.75253e-05
33 *389:A *389:B 0.000140985
34 *415:B1 *149:36 1.30914e-05
35 *422:A2 *421:A1 6.84398e-05
36 *426:A3 *149:18 0.000124749
37 *426:B1 *149:26 5.50052e-05
38 *428:A1 *149:18 9.61282e-05
39 *428:A1 *149:26 9.75679e-05
40 *428:A2 *421:A1 5.50052e-05
41 *431:A1 *149:18 9.10431e-06
42 *432:A2 *149:18 4.48323e-05
43 *434:A3 *149:10 0
44 *434:B1 *149:18 0.000114824
45 *435:A1 *149:18 0.000101545
46 *442:A3 *442:A1 9.99853e-05
47 *448:B1 *421:A1 0.000404614
48 *478:A *149:18 0.000359586
49 *42:14 *149:18 0
50 *62:6 *149:36 0.000139337
51 *62:43 *149:26 0.000110961
52 *62:43 *149:36 3.14161e-05
53 *62:67 *149:18 3.38229e-05
54 *63:8 *389:B 7.25873e-06
55 *63:50 *149:36 0.000144732
56 *67:10 *149:10 0.000123288
57 *67:10 *149:18 0.000195562
58 *74:17 *149:18 7.15591e-05
59 *99:6 *149:26 5.49995e-05
60 *99:23 *149:26 0.000129504
61 *100:16 *389:B 0.000180951
62 *103:64 *389:B 1.35553e-05
63 *127:6 *421:A1 5.52238e-05
64 *134:83 *149:36 0.000101178
*RES
1 *451:X *149:10 20.9071 
2 *149:10 *149:18 22.2857 
3 *149:18 *149:20 0.535714 
4 *149:20 *149:26 6.42857 
5 *149:26 *149:36 14.7857 
6 *149:36 *389:B 11.8893 
7 *149:36 *352:B 9.3 
8 *149:26 *388:B 9.3 
9 *149:20 *426:A1 10.3357 
10 *149:18 *421:A1 26.3 
11 *149:10 *434:A1 13.8 
12 *451:X *442:A1 30.2786 
*END

*D_NET *150 0.00724248
*CONN
*I *356:B I *D sky130_fd_sc_hd__xor2_2
*I *385:A I *D sky130_fd_sc_hd__xnor2_2
*I *354:B I *D sky130_fd_sc_hd__xor2_2
*I *482:X O *D sky130_fd_sc_hd__buf_2
*CAP
1 *356:B 0.000611823
2 *385:A 0.000556081
3 *354:B 0
4 *482:X 0.00160335
5 *150:33 0.00134609
6 *150:24 0.00178154
7 *354:A *150:24 0
8 *354:A *150:33 0
9 *359:A2 *150:24 6.27272e-06
10 *438:B *150:24 8.00634e-06
11 *438:B *150:33 2.18777e-05
12 *442:A1 *356:B 0.000951499
13 *442:A1 *385:A 2.22011e-05
14 *442:A3 *385:A 7.57394e-05
15 *442:B1 *385:A 1.58163e-05
16 *442:B1 *150:24 0
17 *444:B1 *150:33 9.91224e-05
18 *482:A *150:24 2.29917e-05
19 *484:A *150:24 0
20 *96:10 *385:A 2.72859e-05
21 *149:10 *356:B 9.27866e-05
*RES
1 *482:X *150:24 31.1606 
2 *150:24 *354:B 4.5 
3 *150:24 *150:33 7.35714 
4 *150:33 *385:A 18.6214 
5 *150:33 *356:B 12.7054 
*END

*D_NET *151 0.0146853
*CONN
*I *403:C1 I *D sky130_fd_sc_hd__a221oi_2
*I *393:A1 I *D sky130_fd_sc_hd__a31o_2
*I *394:A_N I *D sky130_fd_sc_hd__nand3b_2
*I *351:B I *D sky130_fd_sc_hd__and2_2
*I *391:B I *D sky130_fd_sc_hd__and3b_2
*I *387:A I *D sky130_fd_sc_hd__nor2_2
*I *406:A1 I *D sky130_fd_sc_hd__a31o_2
*I *415:A1 I *D sky130_fd_sc_hd__a31o_2
*I *410:C1 I *D sky130_fd_sc_hd__o211a_2
*I *483:X O *D sky130_fd_sc_hd__buf_2
*CAP
1 *403:C1 0
2 *393:A1 0.000403969
3 *394:A_N 0
4 *351:B 0.000668516
5 *391:B 0.000166923
6 *387:A 1.42311e-05
7 *406:A1 0
8 *415:A1 0.00058038
9 *410:C1 0.000333157
10 *483:X 0.00046306
11 *151:100 0.000469395
12 *151:76 0.00083544
13 *151:74 0.000177202
14 *151:63 0.000415679
15 *151:52 0.000348953
16 *151:33 0.00114509
17 *151:14 0.00108486
18 *151:12 0.000709331
19 *393:A1 *393:A2 5.49544e-05
20 *415:A1 *376:A2 7.13528e-05
21 *151:12 *161:16 0.000159677
22 *151:33 *376:A2 9.67754e-05
23 *151:33 *403:B1 1.78186e-05
24 *151:33 *162:27 2.57826e-06
25 *151:52 *375:A 9.15842e-06
26 *151:52 *376:A2 1.03904e-05
27 overflow *151:12 0.000165157
28 result[0] *151:33 3.29246e-05
29 result[1] *410:C1 0
30 *372:B *410:C1 1.46717e-05
31 *376:B1 *151:63 1.34741e-05
32 *388:A *351:B 8.43386e-05
33 *392:A2 *393:A1 3.53943e-05
34 *392:A2 *151:74 3.2921e-05
35 *392:A2 *151:100 1.6341e-05
36 *393:A3 *393:A1 5.33005e-05
37 *398:A *393:A1 9.41642e-05
38 *402:A *151:12 8.99056e-05
39 *402:B *151:12 0.000204274
40 *402:C *393:A1 0.00031275
41 *406:A3 *151:52 3.14003e-05
42 *406:A3 *151:63 5.33005e-05
43 *406:B1 *351:B 6.05161e-06
44 *406:B1 *387:A 2.85321e-05
45 *406:B1 *151:63 9.71574e-05
46 *407:A1 *151:12 0.000150043
47 *407:A1 *151:14 0.000192267
48 *410:A1 *410:C1 0.000168862
49 *410:A1 *151:14 9.81902e-05
50 *410:A2 *410:C1 5.59013e-05
51 *410:B1 *410:C1 0.000115857
52 *412:A *415:A1 0.000572972
53 *412:B *410:C1 0
54 *413:A2 *415:A1 9.83388e-05
55 *413:B1 *415:A1 0.000186662
56 *414:B1 *415:A1 0.000133422
57 *415:A3 *415:A1 9.71197e-05
58 *442:B1 *393:A1 0.000129615
59 *447:A *151:33 6.62058e-05
60 *447:A *151:63 9.85599e-06
61 *448:D1 *351:B 0.000308602
62 *460:A *151:14 0
63 *485:A *393:A1 0.000200413
64 *62:6 *351:B 6.3629e-05
65 *84:20 *415:A1 0.00026367
66 *100:16 *151:63 0.000136733
67 *100:20 *415:A1 0.000240897
68 *100:20 *151:52 4.36585e-05
69 *100:46 *151:52 9.16804e-07
70 *100:46 *151:100 0
71 *102:10 *393:A1 6.28215e-05
72 *102:10 *151:100 5.54817e-06
73 *103:16 *393:A1 0.000267974
74 *105:12 *151:100 2.06112e-05
75 *105:43 *415:A1 3.08353e-05
76 *105:43 *151:52 3.42675e-05
77 *124:10 *151:33 4.3304e-06
78 *131:10 *393:A1 0.000153486
79 *132:30 *387:A 5.50052e-05
80 *134:27 *151:14 1.7619e-05
81 *134:40 *351:B 2.85321e-05
82 *134:40 *391:B 0.000117381
83 *134:49 *351:B 9.02917e-05
84 *134:68 *351:B 0.000103558
85 *134:75 *351:B 9.67754e-05
86 *134:83 *351:B 1.46689e-05
87 *135:23 *415:A1 1.17968e-05
88 *147:12 *351:B 0.000147718
89 *148:26 *151:12 0.000402771
90 *148:26 *151:14 2.72055e-05
91 *149:36 *351:B 5.33005e-05
*RES
1 *483:X *151:12 27.3536 
2 *151:12 *151:14 5.58929 
3 *151:14 *410:C1 20.9786 
4 *151:14 *151:33 15.2857 
5 *151:33 *415:A1 28.5679 
6 *151:33 *151:52 6.14286 
7 *151:52 *406:A1 9.3 
8 *151:52 *151:63 8.73214 
9 *151:63 *387:A 14.3357 
10 *151:63 *151:74 1.94643 
11 *151:74 *151:76 4.5 
12 *151:76 *391:B 11.4786 
13 *151:76 *351:B 29.1214 
14 *151:74 *151:100 1.03571 
15 *151:100 *394:A_N 13.8 
16 *151:100 *393:A1 26.55 
17 *151:12 *403:C1 13.8 
*END

*D_NET *152 0.00588676
*CONN
*I *366:B I *D sky130_fd_sc_hd__xor2_2
*I *362:B I *D sky130_fd_sc_hd__xor2_2
*I *484:X O *D sky130_fd_sc_hd__buf_2
*CAP
1 *366:B 0.000639765
2 *362:B 0.00170222
3 *484:X 0.00106245
4 result[3] *366:B 0
5 *362:A *362:B 1.68581e-05
6 *366:A *366:B 0
7 *422:B2 *366:B 0
8 *423:A1_N *366:B 0.000309777
9 *428:B1 *362:B 0.000390633
10 *448:A1 *362:B 0.000264539
11 *448:A2 *362:B 0.000308001
12 *448:B1 *362:B 0.00037194
13 *448:B1 *366:B 5.76296e-05
14 *448:C1 *362:B 2.08721e-05
15 *449:C1 *362:B 9.96487e-05
16 *477:A *366:B 0.000360183
17 *73:14 *362:B 3.02581e-06
18 *77:17 *366:B 0
19 *99:23 *362:B 2.71192e-05
20 *103:56 *366:B 0.000220697
21 *141:8 *366:B 3.14003e-05
*RES
1 *484:X *362:B 35.2018 
2 *362:B *366:B 23.6964 
*END

*D_NET *153 0.0013719
*CONN
*I *399:B I *D sky130_fd_sc_hd__nand2_2
*I *485:X O *D sky130_fd_sc_hd__buf_6
*CAP
1 *399:B 0.000264089
2 *485:X 0.000264089
3 *399:B *390:A2 2.16719e-05
4 *399:B *161:27 0
5 *396:A *399:B 9.41642e-05
6 *396:B *399:B 0.000135028
7 *398:A *399:B 1.21258e-05
8 *398:D_N *399:B 0.000308599
9 *407:B1 *399:B 0
10 *481:A *399:B 9.90367e-05
11 *109:12 *399:B 0.000173097
*RES
1 *485:X *399:B 34.5821 
*END

*D_NET *154 0.00226905
*CONN
*I *390:A2 I *D sky130_fd_sc_hd__a211o_2
*I *486:X O *D sky130_fd_sc_hd__buf_2
*CAP
1 *390:A2 0.000467436
2 *486:X 0.000467436
3 *390:A1 *390:A2 0.000502398
4 *397:B *390:A2 0.000268403
5 *397:C *390:A2 9.41642e-05
6 *398:D_N *390:A2 0.000447545
7 *399:B *390:A2 2.16719e-05
*RES
1 *486:X *390:A2 37.9214 
*END

*D_NET *155 0.000749584
*CONN
*I *418:A2 I *D sky130_fd_sc_hd__a21oi_2
*I *487:X O *D sky130_fd_sc_hd__buf_2
*CAP
1 *418:A2 0.000256748
2 *487:X 0.000256748
3 *378:B1 *418:A2 1.24368e-05
4 *417:B1 *418:A2 1.74352e-05
5 *423:B1 *418:A2 0.000177314
6 *61:10 *418:A2 2.89016e-05
*RES
1 *487:X *418:A2 23.8143 
*END

*D_NET *156 0.00404821
*CONN
*I *376:A2 I *D sky130_fd_sc_hd__o21ai_2
*I *367:B I *D sky130_fd_sc_hd__xor2_2
*I *488:X O *D sky130_fd_sc_hd__buf_2
*CAP
1 *376:A2 0.000647554
2 *367:B 0.000333332
3 *488:X 0
4 *156:6 0.000980886
5 *372:B *376:A2 1.01912e-05
6 *412:A *367:B 0
7 *412:A *376:A2 0
8 *415:A1 *376:A2 7.13528e-05
9 *415:A3 *367:B 4.45908e-05
10 *415:B1 *367:B 0.000344244
11 *415:B1 *376:A2 0.000223058
12 *416:B2 *367:B 6.47471e-05
13 *447:A *376:A2 0.00039236
14 *100:16 *376:A2 0.000573198
15 *105:43 *376:A2 0.000168356
16 *146:21 *367:B 0
17 *147:12 *376:A2 8.7178e-05
18 *151:33 *376:A2 9.67754e-05
19 *151:52 *376:A2 1.03904e-05
*RES
1 *488:X *156:6 13.8 
2 *156:6 *367:B 11 
3 *156:6 *376:A2 37.8893 
*END

*D_NET *157 0.00341351
*CONN
*I *422:A1 I *D sky130_fd_sc_hd__o221a_2
*I *421:A2 I *D sky130_fd_sc_hd__a31oi_2
*I *423:B2 I *D sky130_fd_sc_hd__o2bb2a_2
*I *349:A I *D sky130_fd_sc_hd__inv_2
*I *465:X O *D sky130_fd_sc_hd__clkdlybuf4s25_1
*CAP
1 *422:A1 0.000115869
2 *421:A2 0.000106393
3 *423:B2 3.00142e-05
4 *349:A 4.11434e-05
5 *465:X 0.000355718
6 *157:16 0.000199001
7 *157:10 0.000334163
8 *157:6 0.000571514
9 *378:A2 *349:A 5.52238e-05
10 *421:A1 *421:A2 5.33005e-05
11 *421:A1 *157:10 0.000240239
12 *421:A1 *157:16 3.23542e-05
13 *422:A2 *422:A1 1.87331e-05
14 *422:A2 *157:6 5.33005e-05
15 *422:A2 *157:10 3.14003e-05
16 *422:B1 *157:6 0.000419075
17 *422:B2 *157:10 0.000160453
18 *422:B2 *157:16 0.000193501
19 *423:A2_N *349:A 0.000105163
20 *423:A2_N *157:16 4.87854e-05
21 *423:B1 *349:A 4.72917e-05
22 *423:B1 *423:B2 3.57366e-05
23 *448:B1 *157:16 7.80403e-05
24 *476:A *423:B2 0
25 *103:56 *422:A1 1.65169e-05
26 *103:56 *157:6 9.33654e-06
27 *127:6 *421:A2 6.12434e-05
*RES
1 *465:X *157:6 14.3536 
2 *157:6 *157:10 7.66071 
3 *157:10 *157:16 8 
4 *157:16 *349:A 11.0679 
5 *157:16 *423:B2 10.0321 
6 *157:10 *421:A2 15.5679 
7 *157:6 *422:A1 10.9786 
*END

*D_NET *158 0.00323169
*CONN
*I *364:A_N I *D sky130_fd_sc_hd__and2b_2
*I *363:B I *D sky130_fd_sc_hd__and2b_2
*I *427:A1_N I *D sky130_fd_sc_hd__a2bb2o_2
*I *428:B2 I *D sky130_fd_sc_hd__o32a_2
*I *426:A2 I *D sky130_fd_sc_hd__a31o_2
*I *466:X O *D sky130_fd_sc_hd__clkdlybuf4s25_1
*CAP
1 *364:A_N 0
2 *363:B 0.000117121
3 *427:A1_N 3.52129e-05
4 *428:B2 0
5 *426:A2 9.32306e-05
6 *466:X 4.23835e-05
7 *158:47 0.000295791
8 *158:34 0.00037271
9 *158:21 0.000334241
10 *158:6 0.000311028
11 *363:A_N *363:B 5.52238e-05
12 *383:A2 *363:B 9.90367e-05
13 *383:A2 *158:47 0.000122651
14 *421:A1 *426:A2 2.74737e-05
15 *421:A1 *158:6 9.58689e-05
16 *422:A2 *427:A1_N 1.66955e-05
17 *422:A2 *158:21 0.000336278
18 *422:A2 *158:34 6.42338e-05
19 *426:A1 *426:A2 2.04681e-05
20 *426:A3 *158:21 0.000148514
21 *428:A1 *158:34 3.2033e-05
22 *428:A2 *158:21 2.37944e-05
23 *428:A3 *427:A1_N 1.92905e-05
24 *428:A3 *158:21 1.02504e-05
25 *428:A3 *158:34 0.000101545
26 *431:B1 *427:A1_N 0.00012095
27 *431:B1 *158:47 5.94737e-05
28 *478:A *158:21 9.25014e-06
29 *478:A *158:34 4.97121e-06
30 *42:14 *158:47 5.0725e-05
31 *73:14 *158:34 0
32 *73:14 *158:47 0
33 *76:16 *158:34 3.17163e-05
34 *76:16 *158:47 5.84171e-05
35 *149:18 *158:21 0.000116185
36 *149:20 *426:A2 4.93118e-06
*RES
1 *466:X *158:6 10.2464 
2 *158:6 *426:A2 10.9786 
3 *158:6 *158:21 14.2857 
4 *158:21 *428:B2 9.3 
5 *158:21 *158:34 8.125 
6 *158:34 *427:A1_N 14.9518 
7 *158:34 *158:47 9.17857 
8 *158:47 *363:B 11.6214 
9 *158:47 *364:A_N 9.3 
*END

*D_NET *159 0.0056818
*CONN
*I *433:A1_N I *D sky130_fd_sc_hd__a2bb2o_2
*I *434:A2 I *D sky130_fd_sc_hd__a311o_2
*I *357:A_N I *D sky130_fd_sc_hd__and2b_2
*I *429:A I *D sky130_fd_sc_hd__or2_2
*I *360:B I *D sky130_fd_sc_hd__and2b_2
*I *467:X O *D sky130_fd_sc_hd__clkdlybuf4s25_1
*CAP
1 *433:A1_N 6.84346e-05
2 *434:A2 0
3 *357:A_N 1.16062e-05
4 *429:A 0.000611653
5 *360:B 0
6 *467:X 0.000382599
7 *159:31 0.00083643
8 *159:23 0.00032461
9 *159:21 0.000294732
10 *159:10 0.000497457
11 *358:A_N *159:31 0
12 *358:B *159:23 0.000136951
13 *358:B *159:31 0.000142856
14 *363:A_N *159:10 0.000100625
15 *365:B *159:10 2.22999e-05
16 *383:A1 *429:A 0.000360109
17 *425:A *429:A 0.000103267
18 *428:B1 *429:A 0.000102797
19 *430:B *159:21 8.9163e-05
20 *434:A3 *159:31 0.00013248
21 *434:B1 *429:A 3.46786e-05
22 *434:B1 *159:23 4.13496e-05
23 *434:B1 *159:31 0.000247309
24 *434:C1 *433:A1_N 1.04232e-05
25 *434:C1 *159:23 9.90367e-05
26 *435:B1 *429:A 0.000150217
27 *435:B1 *159:31 7.5425e-05
28 *478:A *429:A 0.000264421
29 *41:6 *429:A 9.84673e-05
30 *42:14 *159:10 0
31 *42:14 *159:21 0
32 *62:67 *429:A 0.000199362
33 *67:10 *159:10 0
34 *67:10 *159:21 0
35 *68:10 *159:21 6.04069e-05
36 *71:10 *357:A_N 5.52302e-05
37 *92:23 *429:A 3.22834e-05
38 *103:48 *433:A1_N 2.41368e-05
39 *103:48 *159:23 1.57523e-05
40 *105:108 *357:A_N 5.52302e-05
41 *149:18 *159:10 0
*RES
1 *467:X *159:10 19.05 
2 *159:10 *360:B 13.8 
3 *159:10 *159:21 7.05357 
4 *159:21 *159:23 2.58929 
5 *159:23 *159:31 10.2679 
6 *159:31 *429:A 29.175 
7 *159:31 *357:A_N 14.3357 
8 *159:23 *434:A2 9.3 
9 *159:21 *433:A1_N 10.7107 
*END

*D_NET *160 0.00381718
*CONN
*I *443:A I *D sky130_fd_sc_hd__nor2_2
*I *438:A I *D sky130_fd_sc_hd__xnor2_2
*I *442:A2 I *D sky130_fd_sc_hd__a31o_2
*I *348:A I *D sky130_fd_sc_hd__inv_2
*I *468:X O *D sky130_fd_sc_hd__clkdlybuf4s25_1
*CAP
1 *443:A 0.000165989
2 *438:A 1.95405e-05
3 *442:A2 0.000319993
4 *348:A 0.000111953
5 *468:X 0.000460557
6 *160:25 0.000435749
7 *160:23 0.000368774
8 *160:10 0.000679081
9 *358:A_N *348:A 0
10 *439:A *348:A 0
11 *439:A *443:A 0.000335208
12 *442:A1 *442:A2 0.000207203
13 *442:A1 *160:23 0.000148105
14 *442:A1 *160:25 0.000124595
15 *444:A2 *443:A 0.000123288
16 *444:A2 *160:23 4.08637e-05
17 *444:A2 *160:25 5.33005e-05
18 *444:C1 *348:A 4.1331e-06
19 *445:B1 *443:A 5.77676e-05
20 *451:A *160:10 5.16852e-05
21 *468:A *160:10 5.41609e-05
22 *49:6 *160:23 5.52302e-05
*RES
1 *468:X *160:10 20.2821 
2 *160:10 *348:A 15.7464 
3 *160:10 *160:23 7.08929 
4 *160:23 *160:25 2.17857 
5 *160:25 *442:A2 13.675 
6 *160:25 *438:A 9.72857 
7 *160:23 *443:A 22.9786 
*END

*D_NET *161 0.0053271
*CONN
*I *395:A1_N I *D sky130_fd_sc_hd__a2bb2o_2
*I *384:A I *D sky130_fd_sc_hd__xnor2_2
*I *401:B1 I *D sky130_fd_sc_hd__a21o_2
*I *393:A2 I *D sky130_fd_sc_hd__a31o_2
*I *399:A I *D sky130_fd_sc_hd__nand2_2
*I *400:A1 I *D sky130_fd_sc_hd__o21a_4
*I *469:X O *D sky130_fd_sc_hd__clkdlybuf4s25_1
*CAP
1 *395:A1_N 0.0001575
2 *384:A 5.20958e-05
3 *401:B1 0
4 *393:A2 0.000214471
5 *399:A 4.68511e-05
6 *400:A1 0
7 *469:X 7.79314e-05
8 *161:62 0.000209595
9 *161:42 0.000846888
10 *161:27 0.000738981
11 *161:16 0.000393202
12 *161:8 0.000411421
13 *384:B *384:A 2.89016e-05
14 *384:B *393:A2 5.41794e-05
15 *384:B *395:A1_N 0.000201561
16 *393:A1 *393:A2 5.49544e-05
17 *398:A *161:16 0.000152333
18 *399:B *161:27 0
19 *401:A1 *161:42 5.82318e-05
20 *402:A *161:16 0.000153054
21 *407:B1 *399:A 0.000125724
22 *407:B1 *161:27 5.59013e-05
23 *449:B1 *161:42 8.27532e-05
24 *459:A *399:A 6.65398e-05
25 *459:A *161:8 5.74289e-05
26 *459:A *161:16 0.000137237
27 *459:A *161:27 3.90513e-05
28 *480:A *161:16 4.16984e-05
29 *480:A *161:27 2.89016e-05
30 *480:A *161:42 0.000431857
31 *63:84 *161:16 0
32 *109:19 *161:42 2.77258e-05
33 *131:10 *393:A2 0.000220448
34 *148:10 *161:8 0
35 *148:10 *161:16 0
36 *148:26 *161:16 0
37 *151:12 *161:16 0.000159677
*RES
1 *469:X *161:8 15.4429 
2 *161:8 *161:16 13.3929 
3 *161:16 *400:A1 9.3 
4 *161:16 *161:27 6.07143 
5 *161:27 *399:A 15.4429 
6 *161:27 *161:42 12.75 
7 *161:42 *393:A2 22.3 
8 *161:42 *401:B1 9.3 
9 *161:8 *161:62 4.5 
10 *161:62 *384:A 10.2464 
11 *161:62 *395:A1_N 12.9161 
*END

*D_NET *162 0.00455687
*CONN
*I *376:A1 I *D sky130_fd_sc_hd__o21ai_2
*I *404:A1 I *D sky130_fd_sc_hd__o22a_2
*I *406:A2 I *D sky130_fd_sc_hd__a31o_2
*I *375:A I *D sky130_fd_sc_hd__nand2_2
*I *403:B1 I *D sky130_fd_sc_hd__a221oi_2
*I *470:X O *D sky130_fd_sc_hd__clkdlybuf4s25_1
*CAP
1 *376:A1 3.72343e-05
2 *404:A1 0.000406001
3 *406:A2 0
4 *375:A 0.00014824
5 *403:B1 0.000303233
6 *470:X 0.000166486
7 *162:27 0.000321882
8 *162:12 0.000476875
9 *162:10 0.000556679
10 *162:6 0.000354398
11 result[1] *162:6 5.52302e-05
12 *373:A_N *376:A1 6.99716e-05
13 *373:A_N *162:6 9.71197e-05
14 *373:A_N *162:10 1.49929e-05
15 *402:C *404:A1 5.4959e-05
16 *403:A2 *404:A1 0.000119681
17 *404:A2 *404:A1 0
18 *405:B *403:B1 4.75956e-06
19 *406:A3 *375:A 4.45753e-05
20 *406:A3 *162:27 5.50052e-05
21 *407:A1 *404:A1 0.000100165
22 *407:B1 *403:B1 0.000103954
23 *407:B1 *404:A1 0.000120602
24 *412:C *376:A1 1.1311e-05
25 *412:C *162:6 1.40415e-05
26 *447:A *162:27 4.4545e-05
27 *474:A *376:A1 6.18766e-05
28 *105:43 *375:A 9.96553e-05
29 *105:43 *404:A1 3.19573e-05
30 *105:43 *162:10 4.98876e-05
31 *124:10 *403:B1 0.000119316
32 *124:23 *403:B1 0.000167586
33 *132:30 *375:A 7.95603e-05
34 *134:27 *403:B1 1.13961e-05
35 *137:12 *404:A1 0.000166716
36 *137:12 *162:10 5.74242e-05
37 *151:33 *403:B1 1.78186e-05
38 *151:33 *162:27 2.57826e-06
39 *151:52 *375:A 9.15842e-06
*RES
1 *470:X *162:6 12.3 
2 *162:6 *162:10 7.35714 
3 *162:10 *162:12 4.5 
4 *162:12 *403:B1 24.4429 
5 *162:12 *162:27 2.17857 
6 *162:27 *375:A 21.425 
7 *162:27 *406:A2 9.3 
8 *162:10 *404:A1 21.7821 
9 *162:6 *376:A1 10.8 
*END
